VASP POSCAR made from 110-2.xsd file
1.0
        0.0000000000       -0.0000000000       12.5571200000
        8.2951463879      -14.3676150000       -0.0000000000
       20.0071598964       11.5511391519        0.0000000000
   Ni    S
  108  108
Direct
     0.079548877     0.029774220     0.152533367
     0.079548877     0.529774220     0.359837813
     0.079548877     0.029774220     0.567142259
     0.162882211     0.696440887     0.152533367
     0.162882211     0.196440887     0.359837813
     0.162882211     0.696440887     0.567142259
     0.496215544     0.363107553     0.152533367
     0.496215544     0.863107553     0.359837813
     0.496215544     0.363107553     0.567142259
     0.079548877     0.161877220     0.097762289
     0.079548877     0.661877220     0.305066735
     0.079548877     0.161877220     0.512371181
     0.162882211     0.828543887     0.097762289
     0.162882211     0.328543887     0.305066735
     0.162882211     0.828543887     0.512371181
     0.496215544     0.495210553     0.097762289
     0.496215544     0.995210553     0.305066735
     0.496215544     0.495210553     0.512371181
     0.079548877     0.661877220     0.000000000
     0.079548877     0.161877220     0.207304446
     0.079548877     0.661877220     0.414608892
     0.162882211     0.328543887     0.000000000
     0.162882211     0.828543887     0.207304446
     0.162882211     0.328543887     0.414608892
     0.496215544     0.995210553     0.000000000
     0.496215544     0.495210553     0.207304446
     0.496215544     0.995210553     0.414608892
     0.329548877     0.029774220     0.152533367
     0.329548877     0.529774220     0.359837813
     0.329548877     0.029774220     0.567142259
     0.412882211     0.696440887     0.152533367
     0.412882211     0.196440887     0.359837813
     0.412882211     0.696440887     0.567142259
     0.246215544     0.363107553     0.152533367
     0.246215544     0.863107553     0.359837813
     0.246215544     0.363107553     0.567142259
     0.329548877     0.161877220     0.097762289
     0.329548877     0.661877220     0.305066735
     0.329548877     0.161877220     0.512371181
     0.412882211     0.828543887     0.097762289
     0.412882211     0.328543887     0.305066735
     0.412882211     0.828543887     0.512371181
     0.246215544     0.495210553     0.097762289
     0.246215544     0.995210553     0.305066735
     0.246215544     0.495210553     0.512371181
     0.329548877     0.661877220     0.000000000
     0.329548877     0.161877220     0.207304446
     0.329548877     0.661877220     0.414608892
     0.412882211     0.328543887     0.000000000
     0.412882211     0.828543887     0.207304446
     0.412882211     0.328543887     0.414608892
     0.246215544     0.995210553     0.000000000
     0.246215544     0.495210553     0.207304446
     0.246215544     0.995210553     0.414608892
     0.579548877     0.029774220     0.152533367
     0.579548877     0.529774220     0.359837813
     0.579548877     0.029774220     0.567142259
     0.662882211     0.696440887     0.152533367
     0.662882211     0.196440887     0.359837813
     0.662882211     0.696440887     0.567142259
     0.996215544     0.363107553     0.152533367
     0.996215544     0.863107553     0.359837813
     0.996215544     0.363107553     0.567142259
     0.579548877     0.161877220     0.097762289
     0.579548877     0.661877220     0.305066735
     0.579548877     0.161877220     0.512371181
     0.662882211     0.828543887     0.097762289
     0.662882211     0.328543887     0.305066735
     0.662882211     0.828543887     0.512371181
     0.996215544     0.495210553     0.097762289
     0.996215544     0.995210553     0.305066735
     0.996215544     0.495210553     0.512371181
     0.579548877     0.661877220     0.000000000
     0.579548877     0.161877220     0.207304446
     0.579548877     0.661877220     0.414608892
     0.662882211     0.328543887     0.000000000
     0.662882211     0.828543887     0.207304446
     0.662882211     0.328543887     0.414608892
     0.996215544     0.995210553     0.000000000
     0.996215544     0.495210553     0.207304446
     0.996215544     0.995210553     0.414608892
     0.829548877     0.029774220     0.152533367
     0.829548877     0.529774220     0.359837813
     0.829548877     0.029774220     0.567142259
     0.912882211     0.696440887     0.152533367
     0.912882211     0.196440887     0.359837813
     0.912882211     0.696440887     0.567142259
     0.746215544     0.363107553     0.152533367
     0.746215544     0.863107553     0.359837813
     0.746215544     0.363107553     0.567142259
     0.829548877     0.161877220     0.097762289
     0.829548877     0.661877220     0.305066735
     0.829548877     0.161877220     0.512371181
     0.912882211     0.828543887     0.097762289
     0.912882211     0.328543887     0.305066735
     0.912882211     0.828543887     0.512371181
     0.746215544     0.495210553     0.097762289
     0.746215544     0.995210553     0.305066735
     0.746215544     0.495210553     0.512371181
     0.829548877     0.661877220     0.000000000
     0.829548877     0.161877220     0.207304446
     0.829548877     0.661877220     0.414608892
     0.912882211     0.328543887     0.000000000
     0.912882211     0.828543887     0.207304446
     0.912882211     0.328543887     0.414608892
     0.746215544     0.995210553     0.000000000
     0.746215544     0.495210553     0.207304446
     0.746215544     0.995210553     0.414608892
     0.210622711     0.229986220     0.152533367
     0.210622711     0.729986220     0.359837813
     0.210622711     0.229986220     0.567142259
     0.043956044     0.896652887     0.152533367
     0.043956044     0.396652887     0.359837813
     0.043956044     0.896652887     0.567142259
     0.127289377     0.563319553     0.152533367
     0.127289377     0.063319553     0.359837813
     0.127289377     0.563319553     0.567142259
     0.210622711     0.561771220     0.014972356
     0.210622711     0.061771220     0.222276802
     0.210622711     0.561771220     0.429581248
     0.043956044     0.228437887     0.014972356
     0.043956044     0.728437887     0.222276802
     0.043956044     0.228437887     0.429581248
     0.127289377     0.895104553     0.014972356
     0.127289377     0.395104553     0.222276802
     0.127289377     0.895104553     0.429581248
     0.210622711     0.061771220     0.082789933
     0.210622711     0.561771220     0.290094378
     0.210622711     0.061771220     0.497398824
     0.043956044     0.728437887     0.082789933
     0.043956044     0.228437887     0.290094378
     0.043956044     0.728437887     0.497398824
     0.127289377     0.395104553     0.082789933
     0.127289377     0.895104553     0.290094378
     0.127289377     0.395104553     0.497398824
     0.460622711     0.229986220     0.152533367
     0.460622711     0.729986220     0.359837813
     0.460622711     0.229986220     0.567142259
     0.293956044     0.896652887     0.152533367
     0.293956044     0.396652887     0.359837813
     0.293956044     0.896652887     0.567142259
     0.377289377     0.563319553     0.152533367
     0.377289377     0.063319553     0.359837813
     0.377289377     0.563319553     0.567142259
     0.460622711     0.561771220     0.014972356
     0.460622711     0.061771220     0.222276802
     0.460622711     0.561771220     0.429581248
     0.293956044     0.228437887     0.014972356
     0.293956044     0.728437887     0.222276802
     0.293956044     0.228437887     0.429581248
     0.377289377     0.895104553     0.014972356
     0.377289377     0.395104553     0.222276802
     0.377289377     0.895104553     0.429581248
     0.460622711     0.061771220     0.082789933
     0.460622711     0.561771220     0.290094378
     0.460622711     0.061771220     0.497398824
     0.293956044     0.728437887     0.082789933
     0.293956044     0.228437887     0.290094378
     0.293956044     0.728437887     0.497398824
     0.377289377     0.395104553     0.082789933
     0.377289377     0.895104553     0.290094378
     0.377289377     0.395104553     0.497398824
     0.710622711     0.229986220     0.152533367
     0.710622711     0.729986220     0.359837813
     0.710622711     0.229986220     0.567142259
     0.543956044     0.896652887     0.152533367
     0.543956044     0.396652887     0.359837813
     0.543956044     0.896652887     0.567142259
     0.627289377     0.563319553     0.152533367
     0.627289377     0.063319553     0.359837813
     0.627289377     0.563319553     0.567142259
     0.710622711     0.561771220     0.014972356
     0.710622711     0.061771220     0.222276802
     0.710622711     0.561771220     0.429581248
     0.543956044     0.228437887     0.014972356
     0.543956044     0.728437887     0.222276802
     0.543956044     0.228437887     0.429581248
     0.627289377     0.895104553     0.014972356
     0.627289377     0.395104553     0.222276802
     0.627289377     0.895104553     0.429581248
     0.710622711     0.061771220     0.082789933
     0.710622711     0.561771220     0.290094378
     0.710622711     0.061771220     0.497398824
     0.543956044     0.728437887     0.082789933
     0.543956044     0.228437887     0.290094378
     0.543956044     0.728437887     0.497398824
     0.627289377     0.395104553     0.082789933
     0.627289377     0.895104553     0.290094378
     0.627289377     0.395104553     0.497398824
     0.960622711     0.229986220     0.152533367
     0.960622711     0.729986220     0.359837813
     0.960622711     0.229986220     0.567142259
     0.793956044     0.896652887     0.152533367
     0.793956044     0.396652887     0.359837813
     0.793956044     0.896652887     0.567142259
     0.877289377     0.563319553     0.152533367
     0.877289377     0.063319553     0.359837813
     0.877289377     0.563319553     0.567142259
     0.960622711     0.561771220     0.014972356
     0.960622711     0.061771220     0.222276802
     0.960622711     0.561771220     0.429581248
     0.793956044     0.228437887     0.014972356
     0.793956044     0.728437887     0.222276802
     0.793956044     0.228437887     0.429581248
     0.877289377     0.895104553     0.014972356
     0.877289377     0.395104553     0.222276802
     0.877289377     0.895104553     0.429581248
     0.960622711     0.061771220     0.082789933
     0.960622711     0.561771220     0.290094378
     0.960622711     0.061771220     0.497398824
     0.793956044     0.728437887     0.082789933
     0.793956044     0.228437887     0.290094378
     0.793956044     0.728437887     0.497398824
     0.877289377     0.395104553     0.082789933
     0.877289377     0.895104553     0.290094378
     0.877289377     0.395104553     0.497398824
