POSCAR made from 100-4.xsd file
1.0
        0.0000000000        9.5784100000        0.0000000000
        0.0000000000       -0.0000000000        6.2785600000
       26.5646054724        0.0000000000       -0.0000000000
   Ni    S
   36   36
Direct
     0.063015815     0.245104508     0.041568882
     0.563015815     0.245104508     0.353831994
     0.063015815     0.411771175     0.249744290
     0.563015815     0.411771175     0.562007403
     0.563015815     0.078437841     0.145656586
     0.063015815     0.078437841     0.457919699
     0.798809815     0.245104508     0.041568882
     0.298809815     0.245104508     0.353831994
     0.798809815     0.411771175     0.249744290
     0.298809815     0.411771175     0.562007403
     0.298809815     0.078437841     0.145656586
     0.798809815     0.078437841     0.457919699
     0.930912815     0.245104508     0.124070670
     0.430912815     0.245104508     0.436333782
     0.430912815     0.411771175     0.019982966
     0.930912815     0.411771175     0.332246078
     0.430912815     0.078437841     0.228158374
     0.930912815     0.078437841     0.540421487
     0.063015815     0.745104508     0.041568882
     0.563015815     0.745104508     0.353831994
     0.063015815     0.911771175     0.249744290
     0.563015815     0.911771175     0.562007403
     0.563015815     0.578437841     0.145656586
     0.063015815     0.578437841     0.457919699
     0.798809815     0.745104508     0.041568882
     0.298809815     0.745104508     0.353831994
     0.798809815     0.911771175     0.249744290
     0.298809815     0.911771175     0.562007403
     0.298809815     0.578437841     0.145656586
     0.798809815     0.578437841     0.457919699
     0.930912815     0.745104508     0.124070670
     0.430912815     0.745104508     0.436333782
     0.430912815     0.911771175     0.019982966
     0.930912815     0.911771175     0.332246078
     0.430912815     0.578437841     0.228158374
     0.930912815     0.578437841     0.540421487
     0.762697815     0.007252175     0.104087704
     0.262697815     0.007252175     0.416350817
     0.262697815     0.173918841     0.000000000
     0.762697815     0.173918841     0.312263113
     0.262697815     0.340585508     0.208175408
     0.762697815     0.340585508     0.520438521
     0.099127815     0.007252175     0.104087704
     0.599127815     0.007252175     0.416350817
     0.599127815     0.173918841     0.000000000
     0.099127815     0.173918841     0.312263113
     0.599127815     0.340585508     0.208175408
     0.099127815     0.340585508     0.520438521
     0.430912815     0.007252175     0.311296138
     0.930912815     0.007252175     0.623559250
     0.930912815     0.173918841     0.207208434
     0.430912815     0.173918841     0.519471546
     0.430912815     0.340585508     0.103120729
     0.930912815     0.340585508     0.415383842
     0.762697815     0.507252175     0.104087704
     0.262697815     0.507252175     0.416350817
     0.262697815     0.673918841     0.000000000
     0.762697815     0.673918841     0.312263113
     0.262697815     0.840585508     0.208175408
     0.762697815     0.840585508     0.520438521
     0.099127815     0.507252175     0.104087704
     0.599127815     0.507252175     0.416350817
     0.599127815     0.673918841     0.000000000
     0.099127815     0.673918841     0.312263113
     0.599127815     0.840585508     0.208175408
     0.099127815     0.840585508     0.520438521
     0.430912815     0.507252175     0.311296138
     0.930912815     0.507252175     0.623559250
     0.930912815     0.673918841     0.207208434
     0.430912815     0.673918841     0.519471546
     0.430912815     0.840585508     0.103120729
     0.930912815     0.840585508     0.415383842
