POSCAR made from 110-1.xsd file
1.0
        0.0000000000       -0.0000000000        6.2785600000
        5.5300977567       -9.5784102855       -2.0928533957
       19.7461365250       11.4004372381       -0.0000000000
   Ni    S
   36   36
Direct
     0.246116404     0.003035687     0.070665370
     0.246116404     0.003035687     0.490754960
     0.496116404     0.253035679     0.280710165
     0.312167904     0.201190181     0.015170275
     0.312167904     0.201190181     0.435259865
     0.062167904     0.451190173     0.225215070
     0.312167904     0.201190181     0.126160465
     0.312167904     0.201190181     0.546250055
     0.062167904     0.451190173     0.336205260
     0.746116404     0.003035687     0.070665370
     0.746116404     0.003035687     0.490754960
     0.996116404     0.253035679     0.280710165
     0.812167904     0.201190181     0.015170275
     0.812167904     0.201190181     0.435259865
     0.562167904     0.451190173     0.225215070
     0.812167904     0.201190181     0.126160465
     0.812167904     0.201190181     0.546250055
     0.562167904     0.451190173     0.336205260
     0.246116404     0.503035687     0.070665370
     0.246116404     0.503035687     0.490754960
     0.496116404     0.753035679     0.280710165
     0.312167904     0.701190181     0.015170275
     0.312167904     0.701190181     0.435259865
     0.062167904     0.951190173     0.225215070
     0.312167904     0.701190181     0.126160465
     0.312167904     0.701190181     0.546250055
     0.062167904     0.951190173     0.336205260
     0.746116404     0.503035687     0.070665370
     0.746116404     0.503035687     0.490754960
     0.996116404     0.753035679     0.280710165
     0.812167904     0.701190181     0.015170275
     0.812167904     0.701190181     0.435259865
     0.562167904     0.951190173     0.225215070
     0.812167904     0.701190181     0.126160465
     0.812167904     0.701190181     0.546250055
     0.562167904     0.951190173     0.336205260
     0.108370070     0.303353678     0.070665370
     0.108370070     0.303353678     0.490754960
     0.358370070     0.053353685     0.280710165
     0.024262570     0.051031185     0.141330741
     0.024262570     0.051031185     0.561420330
     0.274262570     0.301031178     0.351375535
     0.024262570     0.051031185     0.000000000
     0.024262570     0.051031185     0.420089590
     0.274262570     0.301031178     0.210044795
     0.608370070     0.303353678     0.070665370
     0.608370070     0.303353678     0.490754960
     0.858370070     0.053353685     0.280710165
     0.524262570     0.051031185     0.141330741
     0.524262570     0.051031185     0.561420330
     0.774262570     0.301031178     0.351375535
     0.524262570     0.051031185     0.000000000
     0.524262570     0.051031185     0.420089590
     0.774262570     0.301031178     0.210044795
     0.108370070     0.803353678     0.070665370
     0.108370070     0.803353678     0.490754960
     0.358370070     0.553353685     0.280710165
     0.024262570     0.551031185     0.141330741
     0.024262570     0.551031185     0.561420330
     0.274262570     0.801031178     0.351375535
     0.024262570     0.551031185    -0.000000000
     0.024262570     0.551031185     0.420089590
     0.274262570     0.801031178     0.210044795
     0.608370070     0.803353678     0.070665370
     0.608370070     0.803353678     0.490754960
     0.858370070     0.553353685     0.280710165
     0.524262570     0.551031185     0.141330741
     0.524262570     0.551031185     0.561420330
     0.774262570     0.801031178     0.351375535
     0.524262570     0.551031185     0.000000000
     0.524262570     0.551031185     0.420089590
     0.774262570     0.801031178     0.210044795
