POSCAR made from 110-3.xsd file
1.0
        0.0000000000       -0.0000000000        6.2785600000
        5.5300977567       -9.5784102855       -2.0928533957
       20.0071598964       11.5511391519       -0.0000000000
   Ni    S
   36   36
Direct
     0.246116404     0.003035687     0.152533367
     0.246116404     0.003035687     0.567142259
     0.496116404     0.253035679     0.359837813
     0.312167904     0.201190181     0.097762289
     0.312167904     0.201190181     0.512371181
     0.062167904     0.451190173     0.305066735
     0.312167904     0.201190181     0.207304446
     0.062167904     0.451190173     0.000000000
     0.062167904     0.451190173     0.414608892
     0.746116404     0.003035687     0.152533367
     0.746116404     0.003035687     0.567142259
     0.996116404     0.253035679     0.359837813
     0.812167904     0.201190181     0.097762289
     0.812167904     0.201190181     0.512371181
     0.562167904     0.451190173     0.305066735
     0.812167904     0.201190181     0.207304446
     0.562167904     0.451190173     0.000000000
     0.562167904     0.451190173     0.414608892
     0.246116404     0.503035687     0.152533367
     0.246116404     0.503035687     0.567142259
     0.496116404     0.753035679     0.359837813
     0.312167904     0.701190181     0.097762289
     0.312167904     0.701190181     0.512371181
     0.062167904     0.951190173     0.305066735
     0.312167904     0.701190181     0.207304446
     0.062167904     0.951190173    -0.000000000
     0.062167904     0.951190173     0.414608892
     0.746116404     0.503035687     0.152533367
     0.746116404     0.503035687     0.567142259
     0.996116404     0.753035679     0.359837813
     0.812167904     0.701190181     0.097762289
     0.812167904     0.701190181     0.512371181
     0.562167904     0.951190173     0.305066735
     0.812167904     0.701190181     0.207304446
     0.562167904     0.951190173     0.000000000
     0.562167904     0.951190173     0.414608892
     0.108370070     0.303353678     0.152533367
     0.108370070     0.303353678     0.567142259
     0.358370070     0.053353685     0.359837813
     0.024262570     0.051031185     0.222276802
     0.274262570     0.301031178     0.014972356
     0.274262570     0.301031178     0.429581248
     0.024262570     0.051031185     0.082789933
     0.024262570     0.051031185     0.497398824
     0.274262570     0.301031178     0.290094378
     0.608370070     0.303353678     0.152533367
     0.608370070     0.303353678     0.567142259
     0.858370070     0.053353685     0.359837813
     0.524262570     0.051031185     0.222276802
     0.774262570     0.301031178     0.014972356
     0.774262570     0.301031178     0.429581248
     0.524262570     0.051031185     0.082789933
     0.524262570     0.051031185     0.497398824
     0.774262570     0.301031178     0.290094378
     0.108370070     0.803353678     0.152533367
     0.108370070     0.803353678     0.567142259
     0.358370070     0.553353685     0.359837813
     0.024262570     0.551031185     0.222276802
     0.274262570     0.801031178     0.014972356
     0.274262570     0.801031178     0.429581248
     0.024262570     0.551031185     0.082789933
     0.024262570     0.551031185     0.497398824
     0.274262570     0.801031178     0.290094378
     0.608370070     0.803353678     0.152533367
     0.608370070     0.803353678     0.567142259
     0.858370070     0.553353685     0.359837813
     0.524262570     0.551031185     0.222276802
     0.774262570     0.801031178     0.014972356
     0.774262570     0.801031178     0.429581248
     0.524262570     0.551031185     0.082789933
     0.524262570     0.551031185     0.497398824
     0.774262570     0.801031178     0.290094378
