POSCAR made from 100-5.xsd file
1.0
        0.0000000000        9.5784100000        0.0000000000
        0.0000000000       -0.0000000000        6.2785600000
       24.3817708810        0.0000000000       -0.0000000000
   Ni    S
   30   30
Direct
     0.563015817     0.245104508     0.273156773
     0.063015817     0.411771175     0.159750375
     0.563015817     0.411771175     0.499969567
     0.563015817     0.078437841     0.046343978
     0.063015817     0.078437841     0.386563170
     0.298809817     0.245104508     0.273156773
     0.798809817     0.411771175     0.159750375
     0.298809817     0.411771175     0.499969567
     0.298809817     0.078437841     0.046343978
     0.798809817     0.078437841     0.386563170
     0.430912817     0.245104508     0.363044724
     0.930912817     0.411771175     0.249638327
     0.430912817     0.411771175     0.589857519
     0.430912817     0.078437841     0.136231930
     0.930912817     0.078437841     0.476451122
     0.563015817     0.745104508     0.273156773
     0.063015817     0.911771175     0.159750375
     0.563015817     0.911771175     0.499969567
     0.563015817     0.578437841     0.046343978
     0.063015817     0.578437841     0.386563170
     0.298809817     0.745104508     0.273156773
     0.798809817     0.911771175     0.159750375
     0.298809817     0.911771175     0.499969567
     0.298809817     0.578437841     0.046343978
     0.798809817     0.578437841     0.386563170
     0.430912817     0.745104508     0.363044724
     0.930912817     0.911771175     0.249638327
     0.430912817     0.911771175     0.589857519
     0.430912817     0.578437841     0.136231930
     0.930912817     0.578437841     0.476451122
     0.262697817     0.007252175     0.341272737
     0.762697817     0.173918841     0.227866340
     0.262697817     0.173918841     0.568085532
     0.262697817     0.340585508     0.114459943
     0.762697817     0.340585508     0.454679135
     0.599127817     0.007252175     0.341272737
     0.099127817     0.173918841     0.227866340
     0.599127817     0.173918841     0.568085532
     0.599127817     0.340585508     0.114459943
     0.099127817     0.340585508     0.454679135
     0.430912817     0.007252175     0.226812795
     0.930912817     0.173918841     0.113406397
     0.430912817     0.173918841     0.453625589
     0.430912817     0.340585508     0.000000000
     0.930912817     0.340585508     0.340219192
     0.262697817     0.507252175     0.341272737
     0.762697817     0.673918841     0.227866340
     0.262697817     0.673918841     0.568085532
     0.262697817     0.840585508     0.114459943
     0.762697817     0.840585508     0.454679135
     0.599127817     0.507252175     0.341272737
     0.099127817     0.673918841     0.227866340
     0.599127817     0.673918841     0.568085532
     0.599127817     0.840585508     0.114459943
     0.099127817     0.840585508     0.454679135
     0.430912817     0.507252175     0.226812795
     0.930912817     0.673918841     0.113406397
     0.430912817     0.673918841     0.453625589
     0.430912817     0.840585508     0.000000000
     0.930912817     0.840585508     0.340219192
