POSCAR made from 100-2.xsd file
1.0
        0.0000000000        9.5784100000        0.0000000000
        0.0000000000       -0.0000000000        6.2785600000
       26.0168714263        0.0000000000       -0.0000000000
   Ni    S
   36   36
Direct
     0.063015813     0.245104508    -0.000000000
     0.563015813     0.245104508     0.318837198
     0.063015813     0.411771175     0.212558132
     0.563015813     0.411771175     0.531395330
     0.563015813     0.078437841     0.106279066
     0.063015813     0.078437841     0.425116264
     0.798809813     0.245104508     0.000000000
     0.298809813     0.245104508     0.318837198
     0.798809813     0.411771175     0.212558132
     0.298809813     0.411771175     0.531395330
     0.298809813     0.078437841     0.106279066
     0.798809813     0.078437841     0.425116264
     0.930912813     0.245104508     0.084238701
     0.430912813     0.245104508     0.403075899
     0.930912813     0.411771175     0.296796833
     0.430912813     0.411771175     0.615634031
     0.430912813     0.078437841     0.190517767
     0.930912813     0.078437841     0.509354965
     0.063015813     0.745104508    -0.000000000
     0.563015813     0.745104508     0.318837198
     0.063015813     0.911771175     0.212558132
     0.563015813     0.911771175     0.531395330
     0.563015813     0.578437841     0.106279066
     0.063015813     0.578437841     0.425116264
     0.798809813     0.745104508     0.000000000
     0.298809813     0.745104508     0.318837198
     0.798809813     0.911771175     0.212558132
     0.298809813     0.911771175     0.531395330
     0.298809813     0.578437841     0.106279066
     0.798809813     0.578437841     0.425116264
     0.930912813     0.745104508     0.084238701
     0.430912813     0.745104508     0.403075899
     0.930912813     0.911771175     0.296796833
     0.430912813     0.911771175     0.615634031
     0.430912813     0.578437841     0.190517767
     0.930912813     0.578437841     0.509354965
     0.762697813     0.007252175     0.063835033
     0.262697813     0.007252175     0.382672231
     0.762697813     0.173918841     0.276393165
     0.262697813     0.173918841     0.595230363
     0.262697813     0.340585508     0.170114099
     0.762697813     0.340585508     0.488951297
     0.099127813     0.007252175     0.063835033
     0.599127813     0.007252175     0.382672231
     0.099127813     0.173918841     0.276393165
     0.599127813     0.173918841     0.595230363
     0.599127813     0.340585508     0.170114099
     0.099127813     0.340585508     0.488951297
     0.430912813     0.007252175     0.275405833
     0.930912813     0.007252175     0.594243031
     0.930912813     0.173918841     0.169126767
     0.430912813     0.173918841     0.487963965
     0.430912813     0.340585508     0.062847701
     0.930912813     0.340585508     0.381684899
     0.762697813     0.507252175     0.063835033
     0.262697813     0.507252175     0.382672231
     0.762697813     0.673918841     0.276393165
     0.262697813     0.673918841     0.595230363
     0.262697813     0.840585508     0.170114099
     0.762697813     0.840585508     0.488951297
     0.099127813     0.507252175     0.063835033
     0.599127813     0.507252175     0.382672231
     0.099127813     0.673918841     0.276393165
     0.599127813     0.673918841     0.595230363
     0.599127813     0.840585508     0.170114099
     0.099127813     0.840585508     0.488951297
     0.430912813     0.507252175     0.275405833
     0.930912813     0.507252175     0.594243031
     0.930912813     0.673918841     0.169126767
     0.430912813     0.673918841     0.487963965
     0.430912813     0.840585508     0.062847701
     0.930912813     0.840585508     0.381684899
