VASP POSCAR made from 101-1.xsd file
1.0
        8.2951463879       -4.7892050000       -0.0000000000
        0.0000000000        9.5784100000        3.1392800000
       -3.7050255135       -6.4172924327       19.5801132776
   Ni    S
   36   36
Direct
    -0.084151314     0.763763716     0.280487810
    -0.021511401     0.889043542     0.420731715
     0.790568861     0.513204065     0.000000000
     0.853208773     0.638483891     0.140243905
     0.582515353     0.097097050     0.280487810
     0.645155266     0.222376875     0.420731715
     0.457235527     0.846537398     0.000000000
     0.519875440     0.971817224     0.140243905
     0.123902194     0.179870732     0.000000000
     0.186542107     0.305150557     0.140243905
     0.249182020     0.430430383     0.280487810
     0.311821932     0.555710209     0.420731715
    -0.067601473     0.532657398     0.317541091
    -0.004961560     0.657937224     0.457784997
     0.807118701     0.282097747     0.037053281
     0.869758614     0.407377572     0.177297186
     0.599065194    -0.134009269     0.317541091
     0.661705106    -0.008729443     0.457784997
     0.473785368     0.615431080     0.037053281
     0.536425281     0.740710906     0.177297186
     0.140452035    -0.051235587     0.037053281
     0.203091948     0.074044239     0.177297186
     0.265731860     0.199324065     0.317541091
     0.328371773     0.324603890     0.457784997
     0.180054686     0.763763716     0.280487810
     0.242694599     0.889043542     0.420731715
     1.054774861     0.513204065     0.000000000
     1.117414773     0.638483891     0.140243905
     0.846721353     0.097097050     0.280487810
     0.909361266     0.222376875     0.420731715
     0.721441527     0.846537398     0.000000000
     0.784081440     0.971817224     0.140243905
     0.388108194     0.179870732     0.000000000
     0.450748107     0.305150557     0.140243905
     0.513388020     0.430430383     0.280487810
     0.576027932     0.555710209     0.420731715
     0.161443762     0.654317869     0.382095548
     0.224083675     0.779597694     0.522339453
     1.036163937     0.403758218     0.101607738
     1.098803850     0.529038043     0.241851643
     0.828110429    -0.012348798     0.382095548
     0.890750342     0.112931028     0.522339453
     0.702830603     0.737091551     0.101607738
     0.765470516     0.862371377     0.241851643
     0.369497270     0.070424884     0.101607738
     0.432137183     0.195704710     0.241851643
     0.494777096     0.320984536     0.382095548
     0.557417009     0.446264361     0.522339453
     0.140369817     0.948599977     0.334913291
     0.203009729     1.073879803     0.475157196
     1.015089991     0.698040326     0.054425481
     1.077729904     0.823320151     0.194669386
     0.807036483     0.281933310     0.334913291
     0.869676396     0.407213136     0.475157196
     0.681756658     1.031373659     0.054425481
     0.744396570     1.156653485     0.194669386
     0.348423324     0.364706992     0.054425481
     0.411063237     0.489986818     0.194669386
     0.473703150     0.615266644     0.334913291
     0.536343063     0.740546469     0.475157196
    -0.174986238     0.654317869     0.382095548
    -0.112346325     0.779597694     0.522339453
     0.699733937     0.403758218     0.101607738
     0.762373850     0.529038043     0.241851643
     0.491680429    -0.012348798     0.382095548
     0.554320342     0.112931028     0.522339453
     0.366400603     0.737091551     0.101607738
     0.429040516     0.862371377     0.241851643
     0.033067270     0.070424884     0.101607738
     0.095707183     0.195704710     0.241851643
     0.158347096     0.320984536     0.382095548
     0.220987009     0.446264361     0.522339453
