POSCAR made from 110-4.xsd file
1.0
        0.0000000000       -0.0000000000        6.2785600000
        5.5300977567       -9.5784102855       -2.0928533957
       20.0071598964       11.5511391519       -0.0000000000
   Ni    S
   36   36
Direct
     0.246116405     0.003035689     0.207304446
     0.496116405     0.253035682    -0.000000000
     0.496116405     0.253035682     0.414608892
     0.312167905     0.201190184     0.152533367
     0.312167905     0.201190184     0.567142259
     0.062167905     0.451190176     0.359837813
     0.312167905     0.201190184     0.262075524
     0.062167905     0.451190176     0.054771078
     0.062167905     0.451190176     0.469379970
     0.746116405     0.003035689     0.207304446
     0.996116405     0.253035682    -0.000000000
     0.996116405     0.253035682     0.414608892
     0.812167905     0.201190184     0.152533367
     0.812167905     0.201190184     0.567142259
     0.562167905     0.451190176     0.359837813
     0.812167905     0.201190184     0.262075524
     0.562167905     0.451190176     0.054771078
     0.562167905     0.451190176     0.469379970
     0.246116405     0.503035689     0.207304446
     0.496116405     0.753035682    -0.000000000
     0.496116405     0.753035682     0.414608892
     0.312167905     0.701190184     0.152533367
     0.312167905     0.701190184     0.567142259
     0.062167905     0.951190176     0.359837813
     0.312167905     0.701190184     0.262075524
     0.062167905     0.951190176     0.054771078
     0.062167905     0.951190176     0.469379970
     0.746116405     0.503035689     0.207304446
     0.996116405     0.753035682    -0.000000000
     0.996116405     0.753035682     0.414608892
     0.812167905     0.701190184     0.152533367
     0.812167905     0.701190184     0.567142259
     0.562167905     0.951190176     0.359837813
     0.812167905     0.701190184     0.262075524
     0.562167905     0.951190176     0.054771078
     0.562167905     0.951190176     0.469379970
     0.108370071     0.303353680     0.207304446
     0.358370071     0.053353688     0.000000000
     0.358370071     0.053353688     0.414608892
     0.024262571     0.051031188     0.277047880
     0.274262571     0.301031181     0.069743435
     0.274262571     0.301031181     0.484352326
     0.024262571     0.051031188     0.137561011
     0.024262571     0.051031188     0.552169903
     0.274262571     0.301031181     0.344865457
     0.608370071     0.303353680     0.207304446
     0.858370071     0.053353688     0.000000000
     0.858370071     0.053353688     0.414608892
     0.524262571     0.051031188     0.277047880
     0.774262571     0.301031181     0.069743435
     0.774262571     0.301031181     0.484352326
     0.524262571     0.051031188     0.137561011
     0.524262571     0.051031188     0.552169903
     0.774262571     0.301031181     0.344865457
     0.108370071     0.803353680     0.207304446
     0.358370071     0.553353688     0.000000000
     0.358370071     0.553353688     0.414608892
     0.024262571     0.551031188     0.277047880
     0.274262571     0.801031181     0.069743435
     0.274262571     0.801031181     0.484352326
     0.024262571     0.551031188     0.137561011
     0.024262571     0.551031188     0.552169903
     0.274262571     0.801031181     0.344865457
     0.608370071     0.803353680     0.207304446
     0.858370071     0.553353688     0.000000000
     0.858370071     0.553353688     0.414608892
     0.524262571     0.551031188     0.277047880
     0.774262571     0.801031181     0.069743435
     0.774262571     0.801031181     0.484352326
     0.524262571     0.551031188     0.137561011
     0.524262571     0.551031188     0.552169903
     0.774262571     0.801031181     0.344865457
