POSCAR made from 101-4.xsd file
1.0
        5.5300977567       -9.5784102855       -2.0928533957
        5.5300977567        9.5784102855       -2.0928533957
        6.5284036208       -0.0000000000       17.2504726286
   Ni    S
   36   36
Direct
     0.380179958     0.466512697     0.097408025
     0.286220091     0.372552831     0.256591580
     0.192260225     0.278592964     0.415775134
     0.418323087     0.240449835     0.256591580
     0.324363221     0.146489968     0.415775134
     0.012282969     0.334409701     0.097408025
     0.119561204     0.073790948     0.139465275
     0.431641456     0.385871200     0.457832384
     0.025601338     0.479831066     0.298648830
     0.880179958     0.466512697     0.097408025
     0.786220091     0.372552831     0.256591580
     0.692260225     0.278592964     0.415775134
     0.918323087     0.240449835     0.256591580
     0.824363221     0.146489968     0.415775134
     0.512282969     0.334409701     0.097408025
     0.619561204     0.073790948     0.139465275
     0.931641456     0.385871200     0.457832384
     0.525601338     0.479831066     0.298648830
     0.380179958     0.966512697     0.097408025
     0.286220091     0.872552831     0.256591580
     0.192260225     0.778592964     0.415775134
     0.418323087     0.740449835     0.256591580
     0.324363221     0.646489968     0.415775134
     0.012282969     0.834409701     0.097408025
     0.119561204     0.573790948     0.139465275
     0.431641456     0.885871200     0.457832384
     0.025601338     0.979831066     0.298648830
     0.880179958     0.966512697     0.097408025
     0.786220091     0.872552831     0.256591580
     0.692260225     0.778592964     0.415775134
     0.918323087     0.740449835     0.256591580
     0.824363221     0.646489968     0.415775134
     0.512282969     0.834409701     0.097408025
     0.619561204     0.573790948     0.139465275
     0.931641456     0.885871200     0.457832384
     0.525601338     0.979831066     0.298648830
     0.206383218     0.492397951     0.053554123
     0.112423351     0.398438085     0.212737678
     0.018463485     0.304478219     0.371921232
     0.038168223     0.160612961     0.053554123
     0.350248475     0.472693214     0.371921232
     0.444208341     0.066653095     0.212737678
     0.401564131     0.355793874     0.000000000
     0.307604264     0.261834008     0.159183554
     0.213644398     0.167874141     0.318367109
     0.706383218     0.492397951     0.053554123
     0.612423351     0.398438085     0.212737678
     0.518463485     0.304478219     0.371921232
     0.538168223     0.160612961     0.053554123
     0.850248475     0.472693214     0.371921232
     0.944208341     0.066653095     0.212737678
     0.901564131     0.355793874    -0.000000000
     0.807604264     0.261834008     0.159183554
     0.713644398     0.167874141     0.318367109
     0.206383218     0.992397951     0.053554123
     0.112423351     0.898438085     0.212737678
     0.018463485     0.804478219     0.371921232
     0.038168223     0.660612961     0.053554123
     0.350248475     0.972693214     0.371921232
     0.444208341     0.566653095     0.212737678
     0.401564131     0.855793874     0.000000000
     0.307604264     0.761834008     0.159183554
     0.213644398     0.667874141     0.318367109
     0.706383218     0.992397951     0.053554123
     0.612423351     0.898438085     0.212737678
     0.518463485     0.804478219     0.371921232
     0.538168223     0.660612961     0.053554123
     0.850248475     0.972693214     0.371921232
     0.944208341     0.566653095     0.212737678
     0.901564131     0.855793874    -0.000000000
     0.807604264     0.761834008     0.159183554
     0.713644398     0.667874141     0.318367109
