POSCAR made from 101-1.xsd file
1.0
        8.2951463879       -4.7892050000       -3.1392800000
        0.0000000000        9.5784100000        0.0000000000
        7.4100510269       -0.0000000000       19.5801132776
   Ni    S
   36   36
Direct
     0.439705999     0.282868818    -0.000000000
     0.314426174     0.220228906     0.140243905
     0.189146348     0.157588993     0.280487810
     0.063866522     0.094949080     0.420731715
     0.106372666     0.616202152    -0.000000000
     0.981092840     0.553562239     0.140243905
     0.855813015     0.490922326     0.280487810
     0.730533189     0.428282413     0.420731715
     0.773039333     0.949535485    -0.000000000
     0.647759507     0.886895572     0.140243905
     0.522479681     0.824255659     0.280487810
     0.397199856     0.761615747     0.420731715
     0.439705999     0.018662818     0.000000000
     0.314426174    -0.043977094     0.140243905
     0.189146348    -0.106617007     0.280487810
     0.063866522    -0.169256920     0.420731715
     0.106372666     0.351996152     0.000000000
     0.981092840     0.289356239     0.140243905
     0.855813015     0.226716326     0.280487810
     0.730533189     0.164076413     0.420731715
     0.773039333     0.685329485     0.000000000
     0.647759507     0.622689572     0.140243905
     0.522479681     0.560049659     0.280487810
     0.397199856     0.497409747     0.420731715
     0.670812318     0.266318978     0.037053281
     0.545532492     0.203679065     0.177297186
     0.420252666     0.141039152     0.317541091
     0.294972841     0.078399239     0.457784997
     0.337478984     0.599652311     0.037053281
     0.212199159     0.537012398     0.177297186
     0.086919333     0.474372485     0.317541091
     0.961639507     0.411732572     0.457784997
     0.004145651     0.932985644     0.037053281
     0.878865825     0.870345731     0.177297186
     0.753586000     0.807705819     0.317541091
     0.628306174     0.745065906     0.457784997
     0.549151847     0.037273742     0.101607738
     0.423872021    -0.025366171     0.241851643
     0.298592196    -0.088006083     0.382095548
     0.173312370     0.849354004     0.522339453
     0.215818514     0.370607076     0.101607738
     0.090538688     0.307967163     0.241851643
     0.965258862     0.245327250     0.382095548
     0.839979037     0.182687337     0.522339453
     0.882485180     0.703940409     0.101607738
     0.757205355     0.641300496     0.241851643
     0.631925529     0.578660583     0.382095548
     0.506645703     0.516020670     0.522339453
     0.549151847     0.373703742     0.101607738
     0.423872021     0.311063829     0.241851643
     0.298592196     0.248423917     0.382095548
     0.173312370     1.185784004     0.522339453
     0.215818514     0.707037076     0.101607738
     0.090538688     0.644397163     0.241851643
     0.965258862     0.581757250     0.382095548
     0.839979037     0.519117337     0.522339453
     0.882485180     0.040370409     0.101607738
     0.757205355     0.977730496     0.241851643
     0.631925529     0.915090583     0.382095548
     0.506645703     0.852450670     0.522339453
     0.254869739     0.058347688     0.054425481
     0.129589913    -0.004292225     0.194669386
     0.004310087    -0.066932138     0.334913291
    -0.120969738     0.870427950     0.475157196
     0.921536405     0.391681021     0.054425481
     0.796256580     0.329041109     0.194669386
     0.670976754     0.266401196     0.334913291
     0.545696928     0.203761283     0.475157196
     0.588203072     0.725014355     0.054425481
     0.462923246     0.662374442     0.194669386
     0.337643421     0.599734529     0.334913291
     0.212363595     0.537094616     0.475157196
