POSCAR made from 101-7.xsd file
1.0
        5.5300977567       -9.5784102855       -2.0928533957
        5.5300977567        9.5784102855       -2.0928533957
        6.3075095737       -0.0000000000       16.6667883263
   Ni    S
   36   36
Direct
     0.380179962     0.466512701     0.210147991
     0.286220095     0.372552835     0.374906281
     0.474139828     0.060472583     0.045389701
     0.418323091     0.240449839     0.374906281
     0.106242839     0.428369572     0.045389701
     0.012282973     0.334409705     0.210147991
     0.213521075     0.167750818     0.088919830
     0.119561208     0.073790952     0.253678120
     0.025601342     0.479831071     0.418436410
     0.880179962     0.466512701     0.210147991
     0.786220095     0.372552835     0.374906281
     0.974139828     0.060472583     0.045389701
     0.918323091     0.240449839     0.374906281
     0.606242839     0.428369572     0.045389701
     0.512282973     0.334409705     0.210147991
     0.713521075     0.167750818     0.088919830
     0.619561208     0.073790952     0.253678120
     0.525601342     0.479831071     0.418436410
     0.380179962     0.966512701     0.210147991
     0.286220095     0.872552835     0.374906281
     0.474139828     0.560472583     0.045389701
     0.418323091     0.740449839     0.374906281
     0.106242839     0.928369572     0.045389701
     0.012282973     0.834409705     0.210147991
     0.213521075     0.667750818     0.088919830
     0.119561208     0.573790952     0.253678120
     0.025601342     0.979831071     0.418436410
     0.880179962     0.966512701     0.210147991
     0.786220095     0.872552835     0.374906281
     0.974139828     0.560472583     0.045389701
     0.918323091     0.740449839     0.374906281
     0.606242839     0.928369572     0.045389701
     0.512282973     0.834409705     0.210147991
     0.713521075     0.667750818     0.088919830
     0.619561208     0.573790952     0.253678120
     0.525601342     0.979831071     0.418436410
     0.300343088     0.086357837     0.000000000
     0.206383222     0.492397956     0.164758290
     0.112423355     0.398438089     0.329516581
     0.132128093     0.254572832     0.000000000
     0.038168227     0.160612965     0.164758290
     0.444208346     0.066653099     0.329516581
     0.401564135     0.355793878     0.109328659
     0.307604268     0.261834012     0.274086949
     0.213644402     0.167874146     0.438845239
     0.800343088     0.086357837     0.000000000
     0.706383222     0.492397956     0.164758290
     0.612423355     0.398438089     0.329516581
     0.632128093     0.254572832    -0.000000000
     0.538168227     0.160612965     0.164758290
     0.944208346     0.066653099     0.329516581
     0.901564135     0.355793878     0.109328659
     0.807604268     0.261834012     0.274086949
     0.713644402     0.167874146     0.438845239
     0.300343088     0.586357837     0.000000000
     0.206383222     0.992397956     0.164758290
     0.112423355     0.898438089     0.329516581
     0.132128093     0.754572832     0.000000000
     0.038168227     0.660612965     0.164758290
     0.444208346     0.566653099     0.329516581
     0.401564135     0.855793878     0.109328659
     0.307604268     0.761834012     0.274086949
     0.213644402     0.667874146     0.438845239
     0.800343088     0.586357837     0.000000000
     0.706383222     0.992397956     0.164758290
     0.612423355     0.898438089     0.329516581
     0.632128093     0.754572832     0.000000000
     0.538168227     0.660612965     0.164758290
     0.944208346     0.566653099     0.329516581
     0.901564135     0.855793878     0.109328659
     0.807604268     0.761834012     0.274086949
     0.713644402     0.667874146     0.438845239
