VASP POSCAR made from 100-2.xsd file
1.0
        0.0000000000       19.1568200000        0.0000000000
        0.0000000000       -0.0000000000       18.8356800000
       26.0168714263        0.0000000000       -0.0000000000
   Ni    S
  216  216
Direct
     0.087613622     0.053032585     0.106279066
     0.337613622     0.053032585     0.425116264
     0.337613622     0.108588140     0.000000000
     0.087613622     0.108588140     0.318837198
     0.337613622     0.330810363     0.212558132
     0.087613622     0.330810363     0.531395330
     0.455510622     0.053032585     0.106279066
     0.205510622     0.053032585     0.425116264
     0.205510622     0.108588140     0.000000000
     0.455510622     0.108588140     0.318837198
     0.205510622     0.330810363     0.212558132
     0.455510622     0.330810363     0.531395330
     0.021562122     0.053032585     0.190517767
     0.271562122     0.053032585     0.509354965
     0.271562122     0.108588140     0.084238701
     0.021562122     0.108588140     0.403075899
     0.271562122     0.330810363     0.296796833
     0.021562122     0.330810363     0.615634031
     0.087613622     0.219699251     0.106279066
     0.337613622     0.219699251     0.425116264
     0.337613622     0.275254807     0.000000000
     0.087613622     0.275254807     0.318837198
     0.337613622     0.164143696     0.212558132
     0.087613622     0.164143696     0.531395330
     0.455510622     0.219699251     0.106279066
     0.205510622     0.219699251     0.425116264
     0.205510622     0.275254807     0.000000000
     0.455510622     0.275254807     0.318837198
     0.205510622     0.164143696     0.212558132
     0.455510622     0.164143696     0.531395330
     0.021562122     0.219699251     0.190517767
     0.271562122     0.219699251     0.509354965
     0.271562122     0.275254807     0.084238701
     0.021562122     0.275254807     0.403075899
     0.271562122     0.164143696     0.296796833
     0.021562122     0.164143696     0.615634031
     0.587613622     0.053032585     0.106279066
     0.837613622     0.053032585     0.425116264
     0.837613622     0.108588140     0.000000000
     0.587613622     0.108588140     0.318837198
     0.837613622     0.330810363     0.212558132
     0.587613622     0.330810363     0.531395330
     0.955510622     0.053032585     0.106279066
     0.705510622     0.053032585     0.425116264
     0.705510622     0.108588140     0.000000000
     0.955510622     0.108588140     0.318837198
     0.705510622     0.330810363     0.212558132
     0.955510622     0.330810363     0.531395330
     0.521562122     0.053032585     0.190517767
     0.771562122     0.053032585     0.509354965
     0.771562122     0.108588140     0.084238701
     0.521562122     0.108588140     0.403075899
     0.771562122     0.330810363     0.296796833
     0.521562122     0.330810363     0.615634031
     0.587613622     0.219699251     0.106279066
     0.837613622     0.219699251     0.425116264
     0.837613622     0.275254807     0.000000000
     0.587613622     0.275254807     0.318837198
     0.837613622     0.164143696     0.212558132
     0.587613622     0.164143696     0.531395330
     0.955510622     0.219699251     0.106279066
     0.705510622     0.219699251     0.425116264
     0.705510622     0.275254807     0.000000000
     0.955510622     0.275254807     0.318837198
     0.705510622     0.164143696     0.212558132
     0.955510622     0.164143696     0.531395330
     0.521562122     0.219699251     0.190517767
     0.771562122     0.219699251     0.509354965
     0.771562122     0.275254807     0.084238701
     0.521562122     0.275254807     0.403075899
     0.771562122     0.164143696     0.296796833
     0.521562122     0.164143696     0.615634031
     0.087613622     0.386365918     0.106279066
     0.337613622     0.386365918     0.425116264
     0.337613622     0.441921474    -0.000000000
     0.087613622     0.441921474     0.318837198
     0.337613622     0.664143696     0.212558132
     0.087613622     0.664143696     0.531395330
     0.455510622     0.386365918     0.106279066
     0.205510622     0.386365918     0.425116264
     0.205510622     0.441921474     0.000000000
     0.455510622     0.441921474     0.318837198
     0.205510622     0.664143696     0.212558132
     0.455510622     0.664143696     0.531395330
     0.021562122     0.386365918     0.190517767
     0.271562122     0.386365918     0.509354965
     0.271562122     0.441921474     0.084238701
     0.021562122     0.441921474     0.403075899
     0.271562122     0.664143696     0.296796833
     0.021562122     0.664143696     0.615634031
     0.087613622     0.553032585     0.106279066
     0.337613622     0.553032585     0.425116264
     0.337613622     0.608588140     0.000000000
     0.087613622     0.608588140     0.318837198
     0.337613622     0.497477029     0.212558132
     0.087613622     0.497477029     0.531395330
     0.455510622     0.553032585     0.106279066
     0.205510622     0.553032585     0.425116264
     0.205510622     0.608588140     0.000000000
     0.455510622     0.608588140     0.318837198
     0.205510622     0.497477029     0.212558132
     0.455510622     0.497477029     0.531395330
     0.021562122     0.553032585     0.190517767
     0.271562122     0.553032585     0.509354965
     0.271562122     0.608588140     0.084238701
     0.021562122     0.608588140     0.403075899
     0.271562122     0.497477029     0.296796833
     0.021562122     0.497477029     0.615634031
     0.587613622     0.386365918     0.106279066
     0.837613622     0.386365918     0.425116264
     0.837613622     0.441921474    -0.000000000
     0.587613622     0.441921474     0.318837198
     0.837613622     0.664143696     0.212558132
     0.587613622     0.664143696     0.531395330
     0.955510622     0.386365918     0.106279066
     0.705510622     0.386365918     0.425116264
     0.705510622     0.441921474     0.000000000
     0.955510622     0.441921474     0.318837198
     0.705510622     0.664143696     0.212558132
     0.955510622     0.664143696     0.531395330
     0.521562122     0.386365918     0.190517767
     0.771562122     0.386365918     0.509354965
     0.771562122     0.441921474     0.084238701
     0.521562122     0.441921474     0.403075899
     0.771562122     0.664143696     0.296796833
     0.521562122     0.664143696     0.615634031
     0.587613622     0.553032585     0.106279066
     0.837613622     0.553032585     0.425116264
     0.837613622     0.608588140     0.000000000
     0.587613622     0.608588140     0.318837198
     0.837613622     0.497477029     0.212558132
     0.587613622     0.497477029     0.531395330
     0.955510622     0.553032585     0.106279066
     0.705510622     0.553032585     0.425116264
     0.705510622     0.608588140     0.000000000
     0.955510622     0.608588140     0.318837198
     0.705510622     0.497477029     0.212558132
     0.955510622     0.497477029     0.531395330
     0.521562122     0.553032585     0.190517767
     0.771562122     0.553032585     0.509354965
     0.771562122     0.608588140     0.084238701
     0.521562122     0.608588140     0.403075899
     0.771562122     0.497477029     0.296796833
     0.521562122     0.497477029     0.615634031
     0.087613622     0.719699251     0.106279066
     0.337613622     0.719699251     0.425116264
     0.337613622     0.775254807     0.000000000
     0.087613622     0.775254807     0.318837198
     0.337613622     0.997477029     0.212558132
     0.087613622     0.997477029     0.531395330
     0.455510622     0.719699251     0.106279066
     0.205510622     0.719699251     0.425116264
     0.205510622     0.775254807     0.000000000
     0.455510622     0.775254807     0.318837198
     0.205510622     0.997477029     0.212558132
     0.455510622     0.997477029     0.531395330
     0.021562122     0.719699251     0.190517767
     0.271562122     0.719699251     0.509354965
     0.271562122     0.775254807     0.084238701
     0.021562122     0.775254807     0.403075899
     0.271562122     0.997477029     0.296796833
     0.021562122     0.997477029     0.615634031
     0.087613622     0.886365918     0.106279066
     0.337613622     0.886365918     0.425116264
     0.337613622     0.941921474     0.000000000
     0.087613622     0.941921474     0.318837198
     0.337613622     0.830810363     0.212558132
     0.087613622     0.830810363     0.531395330
     0.455510622     0.886365918     0.106279066
     0.205510622     0.886365918     0.425116264
     0.205510622     0.941921474     0.000000000
     0.455510622     0.941921474     0.318837198
     0.205510622     0.830810363     0.212558132
     0.455510622     0.830810363     0.531395330
     0.021562122     0.886365918     0.190517767
     0.271562122     0.886365918     0.509354965
     0.271562122     0.941921474     0.084238701
     0.021562122     0.941921474     0.403075899
     0.271562122     0.830810363     0.296796833
     0.021562122     0.830810363     0.615634031
     0.587613622     0.719699251     0.106279066
     0.837613622     0.719699251     0.425116264
     0.837613622     0.775254807     0.000000000
     0.587613622     0.775254807     0.318837198
     0.837613622     0.997477029     0.212558132
     0.587613622     0.997477029     0.531395330
     0.955510622     0.719699251     0.106279066
     0.705510622     0.719699251     0.425116264
     0.705510622     0.775254807     0.000000000
     0.955510622     0.775254807     0.318837198
     0.705510622     0.997477029     0.212558132
     0.955510622     0.997477029     0.531395330
     0.521562122     0.719699251     0.190517767
     0.771562122     0.719699251     0.509354965
     0.771562122     0.775254807     0.084238701
     0.521562122     0.775254807     0.403075899
     0.771562122     0.997477029     0.296796833
     0.521562122     0.997477029     0.615634031
     0.587613622     0.886365918     0.106279066
     0.837613622     0.886365918     0.425116264
     0.837613622     0.941921474     0.000000000
     0.587613622     0.941921474     0.318837198
     0.837613622     0.830810363     0.212558132
     0.587613622     0.830810363     0.531395330
     0.955510622     0.886365918     0.106279066
     0.705510622     0.886365918     0.425116264
     0.705510622     0.941921474     0.000000000
     0.955510622     0.941921474     0.318837198
     0.705510622     0.830810363     0.212558132
     0.955510622     0.830810363     0.531395330
     0.521562122     0.886365918     0.190517767
     0.771562122     0.886365918     0.509354965
     0.771562122     0.941921474     0.084238701
     0.521562122     0.941921474     0.403075899
     0.771562122     0.830810363     0.296796833
     0.521562122     0.830810363     0.615634031
     0.437454622     0.140415140     0.170114099
     0.187454622     0.140415140     0.488951297
     0.187454622     0.029304029     0.063835033
     0.437454622     0.029304029     0.382672231
     0.187454622     0.084859585     0.276393165
     0.437454622     0.084859585     0.595230363
     0.105669622     0.140415140     0.170114099
     0.355669622     0.140415140     0.488951297
     0.355669622     0.029304029     0.063835033
     0.105669622     0.029304029     0.382672231
     0.355669622     0.084859585     0.276393165
     0.105669622     0.084859585     0.595230363
     0.021562122     0.140415140     0.062847701
     0.271562122     0.140415140     0.381684899
     0.021562122     0.029304029     0.275405833
     0.271562122     0.029304029     0.594243031
     0.271562122     0.084859585     0.169126767
     0.021562122     0.084859585     0.487963965
     0.437454622     0.307081807     0.170114099
     0.187454622     0.307081807     0.488951297
     0.187454622     0.195970696     0.063835033
     0.437454622     0.195970696     0.382672231
     0.187454622     0.251526251     0.276393165
     0.437454622     0.251526251     0.595230363
     0.105669622     0.307081807     0.170114099
     0.355669622     0.307081807     0.488951297
     0.355669622     0.195970696     0.063835033
     0.105669622     0.195970696     0.382672231
     0.355669622     0.251526251     0.276393165
     0.105669622     0.251526251     0.595230363
     0.021562122     0.307081807     0.062847701
     0.271562122     0.307081807     0.381684899
     0.021562122     0.195970696     0.275405833
     0.271562122     0.195970696     0.594243031
     0.271562122     0.251526251     0.169126767
     0.021562122     0.251526251     0.487963965
     0.937454622     0.140415140     0.170114099
     0.687454622     0.140415140     0.488951297
     0.687454622     0.029304029     0.063835033
     0.937454622     0.029304029     0.382672231
     0.687454622     0.084859585     0.276393165
     0.937454622     0.084859585     0.595230363
     0.605669622     0.140415140     0.170114099
     0.855669622     0.140415140     0.488951297
     0.855669622     0.029304029     0.063835033
     0.605669622     0.029304029     0.382672231
     0.855669622     0.084859585     0.276393165
     0.605669622     0.084859585     0.595230363
     0.521562122     0.140415140     0.062847701
     0.771562122     0.140415140     0.381684899
     0.521562122     0.029304029     0.275405833
     0.771562122     0.029304029     0.594243031
     0.771562122     0.084859585     0.169126767
     0.521562122     0.084859585     0.487963965
     0.937454622     0.307081807     0.170114099
     0.687454622     0.307081807     0.488951297
     0.687454622     0.195970696     0.063835033
     0.937454622     0.195970696     0.382672231
     0.687454622     0.251526251     0.276393165
     0.937454622     0.251526251     0.595230363
     0.605669622     0.307081807     0.170114099
     0.855669622     0.307081807     0.488951297
     0.855669622     0.195970696     0.063835033
     0.605669622     0.195970696     0.382672231
     0.855669622     0.251526251     0.276393165
     0.605669622     0.251526251     0.595230363
     0.521562122     0.307081807     0.062847701
     0.771562122     0.307081807     0.381684899
     0.521562122     0.195970696     0.275405833
     0.771562122     0.195970696     0.594243031
     0.771562122     0.251526251     0.169126767
     0.521562122     0.251526251     0.487963965
     0.437454622     0.473748474     0.170114099
     0.187454622     0.473748474     0.488951297
     0.187454622     0.362637363     0.063835033
     0.437454622     0.362637363     0.382672231
     0.187454622     0.418192918     0.276393165
     0.437454622     0.418192918     0.595230363
     0.105669622     0.473748474     0.170114099
     0.355669622     0.473748474     0.488951297
     0.355669622     0.362637363     0.063835033
     0.105669622     0.362637363     0.382672231
     0.355669622     0.418192918     0.276393165
     0.105669622     0.418192918     0.595230363
     0.021562122     0.473748474     0.062847701
     0.271562122     0.473748474     0.381684899
     0.021562122     0.362637363     0.275405833
     0.271562122     0.362637363     0.594243031
     0.271562122     0.418192918     0.169126767
     0.021562122     0.418192918     0.487963965
     0.437454622     0.640415140     0.170114099
     0.187454622     0.640415140     0.488951297
     0.187454622     0.529304029     0.063835033
     0.437454622     0.529304029     0.382672231
     0.187454622     0.584859585     0.276393165
     0.437454622     0.584859585     0.595230363
     0.105669622     0.640415140     0.170114099
     0.355669622     0.640415140     0.488951297
     0.355669622     0.529304029     0.063835033
     0.105669622     0.529304029     0.382672231
     0.355669622     0.584859585     0.276393165
     0.105669622     0.584859585     0.595230363
     0.021562122     0.640415140     0.062847701
     0.271562122     0.640415140     0.381684899
     0.021562122     0.529304029     0.275405833
     0.271562122     0.529304029     0.594243031
     0.271562122     0.584859585     0.169126767
     0.021562122     0.584859585     0.487963965
     0.937454622     0.473748474     0.170114099
     0.687454622     0.473748474     0.488951297
     0.687454622     0.362637363     0.063835033
     0.937454622     0.362637363     0.382672231
     0.687454622     0.418192918     0.276393165
     0.937454622     0.418192918     0.595230363
     0.605669622     0.473748474     0.170114099
     0.855669622     0.473748474     0.488951297
     0.855669622     0.362637363     0.063835033
     0.605669622     0.362637363     0.382672231
     0.855669622     0.418192918     0.276393165
     0.605669622     0.418192918     0.595230363
     0.521562122     0.473748474     0.062847701
     0.771562122     0.473748474     0.381684899
     0.521562122     0.362637363     0.275405833
     0.771562122     0.362637363     0.594243031
     0.771562122     0.418192918     0.169126767
     0.521562122     0.418192918     0.487963965
     0.937454622     0.640415140     0.170114099
     0.687454622     0.640415140     0.488951297
     0.687454622     0.529304029     0.063835033
     0.937454622     0.529304029     0.382672231
     0.687454622     0.584859585     0.276393165
     0.937454622     0.584859585     0.595230363
     0.605669622     0.640415140     0.170114099
     0.855669622     0.640415140     0.488951297
     0.855669622     0.529304029     0.063835033
     0.605669622     0.529304029     0.382672231
     0.855669622     0.584859585     0.276393165
     0.605669622     0.584859585     0.595230363
     0.521562122     0.640415140     0.062847701
     0.771562122     0.640415140     0.381684899
     0.521562122     0.529304029     0.275405833
     0.771562122     0.529304029     0.594243031
     0.771562122     0.584859585     0.169126767
     0.521562122     0.584859585     0.487963965
     0.437454622     0.807081807     0.170114099
     0.187454622     0.807081807     0.488951297
     0.187454622     0.695970696     0.063835033
     0.437454622     0.695970696     0.382672231
     0.187454622     0.751526251     0.276393165
     0.437454622     0.751526251     0.595230363
     0.105669622     0.807081807     0.170114099
     0.355669622     0.807081807     0.488951297
     0.355669622     0.695970696     0.063835033
     0.105669622     0.695970696     0.382672231
     0.355669622     0.751526251     0.276393165
     0.105669622     0.751526251     0.595230363
     0.021562122     0.807081807     0.062847701
     0.271562122     0.807081807     0.381684899
     0.021562122     0.695970696     0.275405833
     0.271562122     0.695970696     0.594243031
     0.271562122     0.751526251     0.169126767
     0.021562122     0.751526251     0.487963965
     0.437454622     0.973748474     0.170114099
     0.187454622     0.973748474     0.488951297
     0.187454622     0.862637363     0.063835033
     0.437454622     0.862637363     0.382672231
     0.187454622     0.918192918     0.276393165
     0.437454622     0.918192918     0.595230363
     0.105669622     0.973748474     0.170114099
     0.355669622     0.973748474     0.488951297
     0.355669622     0.862637363     0.063835033
     0.105669622     0.862637363     0.382672231
     0.355669622     0.918192918     0.276393165
     0.105669622     0.918192918     0.595230363
     0.021562122     0.973748474     0.062847701
     0.271562122     0.973748474     0.381684899
     0.021562122     0.862637363     0.275405833
     0.271562122     0.862637363     0.594243031
     0.271562122     0.918192918     0.169126767
     0.021562122     0.918192918     0.487963965
     0.937454622     0.807081807     0.170114099
     0.687454622     0.807081807     0.488951297
     0.687454622     0.695970696     0.063835033
     0.937454622     0.695970696     0.382672231
     0.687454622     0.751526251     0.276393165
     0.937454622     0.751526251     0.595230363
     0.605669622     0.807081807     0.170114099
     0.855669622     0.807081807     0.488951297
     0.855669622     0.695970696     0.063835033
     0.605669622     0.695970696     0.382672231
     0.855669622     0.751526251     0.276393165
     0.605669622     0.751526251     0.595230363
     0.521562122     0.807081807     0.062847701
     0.771562122     0.807081807     0.381684899
     0.521562122     0.695970696     0.275405833
     0.771562122     0.695970696     0.594243031
     0.771562122     0.751526251     0.169126767
     0.521562122     0.751526251     0.487963965
     0.937454622     0.973748474     0.170114099
     0.687454622     0.973748474     0.488951297
     0.687454622     0.862637363     0.063835033
     0.937454622     0.862637363     0.382672231
     0.687454622     0.918192918     0.276393165
     0.937454622     0.918192918     0.595230363
     0.605669622     0.973748474     0.170114099
     0.855669622     0.973748474     0.488951297
     0.855669622     0.862637363     0.063835033
     0.605669622     0.862637363     0.382672231
     0.855669622     0.918192918     0.276393165
     0.605669622     0.918192918     0.595230363
     0.521562122     0.973748474     0.062847701
     0.771562122     0.973748474     0.381684899
     0.521562122     0.862637363     0.275405833
     0.771562122     0.862637363     0.594243031
     0.771562122     0.918192918     0.169126767
     0.521562122     0.918192918     0.487963965
