POSCAR made from -111-3.xsd file
1.0
        8.2951463879        4.7892050000       -0.0000000000
       -0.0000000000        9.5784100000       -3.1392800000
       -3.7108901473        6.4274502764       19.6111063688
   Ni    S
   36   36
Direct
     0.742894065     0.600100085     0.000000000
     0.805533977     0.474820260     0.140022266
     0.868173890     0.349540434     0.280044532
     0.930813803     0.224260608     0.420066797
     0.409560731     0.266766752     0.000000000
     0.472200644     0.141486926     0.140022266
     0.534840557     0.016207101     0.280044532
     0.597480470     0.890927275     0.420066797
     0.076227398     0.933433419     0.000000000
     0.138867311     0.808153593     0.140022266
     0.201507224     0.682873767     0.280044532
     0.264147136     0.557593942     0.420066797
     0.788984137     0.243713941     0.103027543
     0.851624049     0.118434116     0.243049809
     0.914263962     0.993154290     0.383072075
     0.976903875     0.867874464     0.523094341
     0.455650803     0.910380608     0.103027543
     0.518290716     0.785100782     0.243049809
     0.580930629     0.659820957     0.383072075
     0.643570542     0.534541131     0.523094341
     0.122317470     0.577047275     0.103027543
     0.184957383     0.451767449     0.243049809
     0.247597296     0.326487623     0.383072075
     0.310237208     0.201207798     0.523094341
     0.053190137     0.243713941     0.103027543
     0.115830049     0.118434116     0.243049809
     0.178469962     0.993154290     0.383072075
     0.241109875     0.867874464     0.523094341
     0.719856803     0.910380608     0.103027543
     0.782496716     0.785100782     0.243049809
     0.845136629     0.659820957     0.383072075
     0.907776542     0.534541131     0.523094341
     0.386523470     0.577047275     0.103027543
     0.449163383     0.451767449     0.243049809
     0.511803296     0.326487623     0.383072075
     0.574443208     0.201207798     0.523094341
     0.013505267     0.058877681     0.157367011
     0.076145180     0.933597855     0.297389276
     0.138785093     0.808318029     0.437411542
     0.950865354     0.184157506     0.017344745
     0.617532021     0.850824173     0.017344745
     0.680171934     0.725544347     0.157367011
     0.742811846     0.600264522     0.297389276
     0.805451759     0.474984696     0.437411542
     0.284198687     0.517490840     0.017344745
     0.346838600     0.392211014     0.157367011
     0.409478513     0.266931188     0.297389276
     0.472118426     0.141651363     0.437411542
     0.034579213     0.353159789     0.204474701
     0.097219126     0.227879963     0.344496967
     0.159859038     0.102600138     0.484519233
     0.971939300     0.478439615     0.064452436
     0.638605967     0.145106281     0.064452436
     0.701245879     0.019826456     0.204474701
     0.763885792     0.894546630     0.344496967
     0.826525705     0.769266804     0.484519233
     0.305272633     0.811772948     0.064452436
     0.367912546     0.686493122     0.204474701
     0.430552459     0.561213297     0.344496967
     0.493192372     0.435933471     0.484519233
     0.635509300     0.478439615     0.064452436
     0.698149213     0.353159789     0.204474701
     0.760789126     0.227879963     0.344496967
     0.823429038     0.102600138     0.484519233
     0.302175967     0.145106281     0.064452436
     0.364815879     0.019826456     0.204474701
     0.427455792     0.894546630     0.344496967
     0.490095705     0.769266804     0.484519233
     0.031482546     0.686493122     0.204474701
     0.094122459     0.561213297     0.344496967
     0.156762372     0.435933471     0.484519233
     0.968842633     0.811772948     0.064452436
