POSCAR made from 012-3.xsd file
1.0
        8.2951463879       -4.7892050000       -0.0000000000
        5.5300977567        9.5784102855       -2.0928533957
        1.7681233726        3.0624795154       18.6881606067
   Ni    S
   36   36
Direct
     0.922411708     0.175765632     0.081087742
     0.922411708     0.123913697     0.243263227
     0.922411708     0.072061763     0.405438712
     0.422411708     0.451691591     0.000000000
     0.422411708     0.399839657     0.162175485
     0.422411708     0.347987723     0.324350969
     0.554514708     0.208534959     0.140751617
     0.554514708     0.156683025     0.302927101
     0.554514708     0.104831091     0.465102586
     0.054514708     0.484460919     0.059663874
     0.054514708     0.432608985     0.221839359
     0.054514708     0.380757050     0.384014844
     0.186617708     0.175765632     0.081087742
     0.186617708     0.123913697     0.243263227
     0.186617708     0.072061763     0.405438712
     0.686617708     0.451691591     0.000000000
     0.686617708     0.399839657     0.162175485
     0.686617708     0.347987723     0.324350969
     0.922411708     0.675765632     0.081087742
     0.922411708     0.623913697     0.243263227
     0.922411708     0.572061763     0.405438712
     0.422411708     0.951691591     0.000000000
     0.422411708     0.899839657     0.162175485
     0.422411708     0.847987723     0.324350969
     0.554514708     0.708534959     0.140751617
     0.554514708     0.656683025     0.302927101
     0.554514708     0.604831091     0.465102586
     0.054514708     0.984460919     0.059663874
     0.054514708     0.932608985     0.221839359
     0.054514708     0.880757050     0.384014844
     0.186617708     0.675765632     0.081087742
     0.186617708     0.623913697     0.243263227
     0.186617708     0.572061763     0.405438712
     0.686617708     0.951691591    -0.000000000
     0.686617708     0.899839657     0.162175485
     0.686617708     0.847987723     0.324350969
     0.222729708     0.003611599     0.149880853
     0.722729708     0.279537558     0.068793111
     0.722729708     0.227685624     0.230968595
     0.722729708     0.175833690     0.393144080
     0.222729708     0.451759650     0.312056338
     0.222729708     0.399907715     0.474231822
     0.054514708     0.299063752     0.014985718
     0.054514708     0.247211818     0.177161202
     0.054514708     0.195359884     0.339336687
     0.554514708     0.471285844     0.258248945
     0.554514708     0.419433909     0.420424429
     0.554514708     0.023137793     0.096073460
     0.886299708     0.003611599     0.149880853
     0.386299708     0.279537558     0.068793111
     0.386299708     0.227685624     0.230968595
     0.386299708     0.175833690     0.393144080
     0.886299708     0.451759650     0.312056338
     0.886299708     0.399907715     0.474231822
     0.222729708     0.503611599     0.149880853
     0.722729708     0.779537558     0.068793111
     0.722729708     0.727685624     0.230968595
     0.722729708     0.675833690     0.393144080
     0.222729708     0.951759650     0.312056338
     0.222729708     0.899907715     0.474231822
     0.054514708     0.799063752     0.014985718
     0.054514708     0.747211818     0.177161202
     0.054514708     0.695359884     0.339336687
     0.554514708     0.971285844     0.258248945
     0.554514708     0.919433909     0.420424429
     0.554514708     0.523137793     0.096073460
     0.886299708     0.503611599     0.149880853
     0.386299708     0.779537558     0.068793111
     0.386299708     0.727685624     0.230968595
     0.386299708     0.675833690     0.393144080
     0.886299708     0.951759650     0.312056338
     0.886299708     0.899907715     0.474231822
