POSCAR made from 101-5.xsd file
1.0
        5.5300977567       -9.5784102855       -2.0928533957
        5.5300977567        9.5784102855       -2.0928533957
        6.3825658013       -0.0000000000       16.8651148199
   Ni    S
   36   36
Direct
     0.380179961     0.466512700     0.119802570
     0.286220094     0.372552834     0.282623374
     0.192260228     0.278592968     0.445444178
     0.418323090     0.240449838     0.282623374
     0.324363224     0.146489971     0.445444178
     0.012282972     0.334409704     0.119802570
     0.213521074     0.167750817    -0.000000000
     0.119561207     0.073790951     0.162820804
     0.025601341     0.479831070     0.325641607
     0.880179961     0.466512700     0.119802570
     0.786220094     0.372552834     0.282623374
     0.692260228     0.278592968     0.445444178
     0.918323090     0.240449838     0.282623374
     0.824363224     0.146489971     0.445444178
     0.512282972     0.334409704     0.119802570
     0.713521074     0.167750817    -0.000000000
     0.619561207     0.073790951     0.162820804
     0.525601341     0.479831070     0.325641607
     0.380179961     0.966512700     0.119802570
     0.286220094     0.872552834     0.282623374
     0.192260228     0.778592968     0.445444178
     0.418323090     0.740449838     0.282623374
     0.324363224     0.646489971     0.445444178
     0.012282972     0.834409704     0.119802570
     0.213521074     0.667750817     0.000000000
     0.119561207     0.573790951     0.162820804
     0.025601341     0.979831070     0.325641607
     0.880179961     0.966512700     0.119802570
     0.786220094     0.872552834     0.282623374
     0.692260228     0.778592968     0.445444178
     0.918323090     0.740449838     0.282623374
     0.824363224     0.646489971     0.445444178
     0.512282972     0.834409704     0.119802570
     0.713521074     0.667750817    -0.000000000
     0.619561207     0.573790951     0.162820804
     0.525601341     0.979831070     0.325641607
     0.206383221     0.492397955     0.074946633
     0.112423354     0.398438088     0.237767437
     0.018463488     0.304478222     0.400588240
     0.038168226     0.160612964     0.074946633
     0.350248478     0.472693217     0.400588240
     0.444208345     0.066653098     0.237767437
     0.401564134     0.355793877     0.020168830
     0.307604267     0.261834011     0.182989634
     0.213644401     0.167874145     0.345810437
     0.706383221     0.492397955     0.074946633
     0.612423354     0.398438088     0.237767437
     0.518463488     0.304478222     0.400588240
     0.538168226     0.160612964     0.074946633
     0.850248478     0.472693217     0.400588240
     0.944208345     0.066653098     0.237767437
     0.901564134     0.355793877     0.020168830
     0.807604267     0.261834011     0.182989634
     0.713644401     0.167874145     0.345810437
     0.206383221     0.992397955     0.074946633
     0.112423354     0.898438088     0.237767437
     0.018463488     0.804478222     0.400588240
     0.038168226     0.660612964     0.074946633
     0.350248478     0.972693217     0.400588240
     0.444208345     0.566653098     0.237767437
     0.401564134     0.855793877     0.020168830
     0.307604267     0.761834011     0.182989634
     0.213644401     0.667874145     0.345810437
     0.706383221     0.992397955     0.074946633
     0.612423354     0.898438088     0.237767437
     0.518463488     0.804478222     0.400588240
     0.538168226     0.660612964     0.074946633
     0.850248478     0.972693217     0.400588240
     0.944208345     0.566653098     0.237767437
     0.901564134     0.855793877     0.020168830
     0.807604267     0.761834011     0.182989634
     0.713644401     0.667874145     0.345810437
