POSCAR made from 012-1.xsd file
1.0
        8.2951463879       -4.7892050000       -0.0000000000
        5.5300977567        9.5784102855       -2.0928533957
        1.7108653049        2.9633056330       18.0829720882
   Ni    S
   36   36
Direct
     0.921434227     0.010501161     0.022140867
     0.421434227     0.234575186     0.105942399
     0.421434227     0.182723252     0.273545461
     0.421434227     0.130871318     0.441148524
     0.921434227     0.458649212     0.189743930
     0.921434227     0.406797278     0.357346993
     0.553537227     0.491418539     0.251404594
     0.553537227     0.439566605     0.419007657
     0.553537227     0.043270488     0.083801531
     0.053537227     0.319196448    -0.000000000
     0.053537227     0.267344514     0.167603063
     0.053537227     0.215492580     0.335206125
     0.185640227     0.010501161     0.022140867
     0.685640227     0.234575186     0.105942399
     0.685640227     0.182723252     0.273545461
     0.685640227     0.130871318     0.441148524
     0.185640227     0.458649212     0.189743930
     0.185640227     0.406797278     0.357346993
     0.921434227     0.510501161     0.022140867
     0.421434227     0.734575186     0.105942399
     0.421434227     0.682723252     0.273545461
     0.421434227     0.630871318     0.441148524
     0.921434227     0.958649212     0.189743930
     0.921434227     0.906797278     0.357346993
     0.553537227     0.991418539     0.251404594
     0.553537227     0.939566605     0.419007657
     0.553537227     0.543270488     0.083801531
     0.053537227     0.819196448    -0.000000000
     0.053537227     0.767344514     0.167603063
     0.053537227     0.715492580     0.335206125
     0.185640227     0.510501161     0.022140867
     0.685640227     0.734575186     0.105942399
     0.685640227     0.682723252     0.273545461
     0.685640227     0.630871318     0.441148524
     0.185640227     0.958649212     0.189743930
     0.185640227     0.906797278     0.357346993
     0.721752227     0.114273088     0.009434767
     0.721752227     0.062421153     0.177037830
     0.721752227     0.010569219     0.344640893
     0.221752227     0.338347113     0.093236299
     0.221752227     0.286495179     0.260839361
     0.221752227     0.234643245     0.428442424
     0.053537227     0.081947347     0.121429648
     0.053537227     0.030095413     0.289032711
     0.553537227     0.357873307     0.037628117
     0.553537227     0.306021373     0.205231179
     0.553537227     0.254169439     0.372834242
     0.053537227     0.478243464     0.456635773
     0.385322227     0.114273088     0.009434767
     0.385322227     0.062421153     0.177037830
     0.385322227     0.010569219     0.344640893
     0.885322227     0.338347113     0.093236299
     0.885322227     0.286495179     0.260839361
     0.885322227     0.234643245     0.428442424
     0.721752227     0.614273088     0.009434767
     0.721752227     0.562421153     0.177037830
     0.721752227     0.510569219     0.344640893
     0.221752227     0.838347113     0.093236299
     0.221752227     0.786495179     0.260839361
     0.221752227     0.734643245     0.428442424
     0.053537227     0.581947347     0.121429648
     0.053537227     0.530095413     0.289032711
     0.553537227     0.857873307     0.037628117
     0.553537227     0.806021373     0.205231179
     0.553537227     0.754169439     0.372834242
     0.053537227     0.978243464     0.456635773
     0.385322227     0.614273088     0.009434767
     0.385322227     0.562421153     0.177037830
     0.385322227     0.510569219     0.344640893
     0.885322227     0.838347113     0.093236299
     0.885322227     0.786495179     0.260839361
     0.885322227     0.734643245     0.428442424
