VASP POSCAR made from 100-3.xsd file
1.0
        0.0000000000       19.1568200000        0.0000000000
        0.0000000000       -0.0000000000       18.8356800000
       26.0594531778        0.0000000000       -0.0000000000
   Ni    S
  216  216
Direct
     0.087613614     0.053032585     0.128109754
     0.337613614     0.053032585     0.446425965
     0.337613614     0.108588140     0.022004351
     0.087613614     0.108588140     0.340320561
     0.337613614     0.330810363     0.234215158
     0.087613614     0.330810363     0.552531369
     0.455510614     0.053032585     0.128109754
     0.205510614     0.053032585     0.446425965
     0.205510614     0.108588140     0.022004351
     0.455510614     0.108588140     0.340320561
     0.205510614     0.330810363     0.234215158
     0.455510614     0.330810363     0.552531369
     0.021562114     0.053032585     0.212210807
     0.271562114     0.053032585     0.530527018
     0.271562114     0.108588140     0.106105404
     0.021562114     0.108588140     0.424421614
     0.021562114     0.330810363    -0.000000000
     0.271562114     0.330810363     0.318316211
     0.087613614     0.219699251     0.128109754
     0.337613614     0.219699251     0.446425965
     0.337613614     0.275254807     0.022004351
     0.087613614     0.275254807     0.340320561
     0.337613614     0.164143696     0.234215158
     0.087613614     0.164143696     0.552531369
     0.455510614     0.219699251     0.128109754
     0.205510614     0.219699251     0.446425965
     0.205510614     0.275254807     0.022004351
     0.455510614     0.275254807     0.340320561
     0.205510614     0.164143696     0.234215158
     0.455510614     0.164143696     0.552531369
     0.021562114     0.219699251     0.212210807
     0.271562114     0.219699251     0.530527018
     0.271562114     0.275254807     0.106105404
     0.021562114     0.275254807     0.424421614
     0.021562114     0.164143696     0.000000000
     0.271562114     0.164143696     0.318316211
     0.587613614     0.053032585     0.128109754
     0.837613614     0.053032585     0.446425965
     0.837613614     0.108588140     0.022004351
     0.587613614     0.108588140     0.340320561
     0.837613614     0.330810363     0.234215158
     0.587613614     0.330810363     0.552531369
     0.955510614     0.053032585     0.128109754
     0.705510614     0.053032585     0.446425965
     0.705510614     0.108588140     0.022004351
     0.955510614     0.108588140     0.340320561
     0.705510614     0.330810363     0.234215158
     0.955510614     0.330810363     0.552531369
     0.521562114     0.053032585     0.212210807
     0.771562114     0.053032585     0.530527018
     0.771562114     0.108588140     0.106105404
     0.521562114     0.108588140     0.424421614
     0.521562114     0.330810363    -0.000000000
     0.771562114     0.330810363     0.318316211
     0.587613614     0.219699251     0.128109754
     0.837613614     0.219699251     0.446425965
     0.837613614     0.275254807     0.022004351
     0.587613614     0.275254807     0.340320561
     0.837613614     0.164143696     0.234215158
     0.587613614     0.164143696     0.552531369
     0.955510614     0.219699251     0.128109754
     0.705510614     0.219699251     0.446425965
     0.705510614     0.275254807     0.022004351
     0.955510614     0.275254807     0.340320561
     0.705510614     0.164143696     0.234215158
     0.955510614     0.164143696     0.552531369
     0.521562114     0.219699251     0.212210807
     0.771562114     0.219699251     0.530527018
     0.771562114     0.275254807     0.106105404
     0.521562114     0.275254807     0.424421614
     0.521562114     0.164143696     0.000000000
     0.771562114     0.164143696     0.318316211
     0.087613614     0.386365918     0.128109754
     0.337613614     0.386365918     0.446425965
     0.337613614     0.441921474     0.022004351
     0.087613614     0.441921474     0.340320561
     0.337613614     0.664143696     0.234215158
     0.087613614     0.664143696     0.552531369
     0.455510614     0.386365918     0.128109754
     0.205510614     0.386365918     0.446425965
     0.205510614     0.441921474     0.022004351
     0.455510614     0.441921474     0.340320561
     0.205510614     0.664143696     0.234215158
     0.455510614     0.664143696     0.552531369
     0.021562114     0.386365918     0.212210807
     0.271562114     0.386365918     0.530527018
     0.271562114     0.441921474     0.106105404
     0.021562114     0.441921474     0.424421614
     0.021562114     0.664143696     0.000000000
     0.271562114     0.664143696     0.318316211
     0.087613614     0.553032585     0.128109754
     0.337613614     0.553032585     0.446425965
     0.337613614     0.608588140     0.022004351
     0.087613614     0.608588140     0.340320561
     0.337613614     0.497477029     0.234215158
     0.087613614     0.497477029     0.552531369
     0.455510614     0.553032585     0.128109754
     0.205510614     0.553032585     0.446425965
     0.205510614     0.608588140     0.022004351
     0.455510614     0.608588140     0.340320561
     0.205510614     0.497477029     0.234215158
     0.455510614     0.497477029     0.552531369
     0.021562114     0.553032585     0.212210807
     0.271562114     0.553032585     0.530527018
     0.271562114     0.608588140     0.106105404
     0.021562114     0.608588140     0.424421614
     0.021562114     0.497477029     0.000000000
     0.271562114     0.497477029     0.318316211
     0.587613614     0.386365918     0.128109754
     0.837613614     0.386365918     0.446425965
     0.837613614     0.441921474     0.022004351
     0.587613614     0.441921474     0.340320561
     0.837613614     0.664143696     0.234215158
     0.587613614     0.664143696     0.552531369
     0.955510614     0.386365918     0.128109754
     0.705510614     0.386365918     0.446425965
     0.705510614     0.441921474     0.022004351
     0.955510614     0.441921474     0.340320561
     0.705510614     0.664143696     0.234215158
     0.955510614     0.664143696     0.552531369
     0.521562114     0.386365918     0.212210807
     0.771562114     0.386365918     0.530527018
     0.771562114     0.441921474     0.106105404
     0.521562114     0.441921474     0.424421614
     0.521562114     0.664143696     0.000000000
     0.771562114     0.664143696     0.318316211
     0.587613614     0.553032585     0.128109754
     0.837613614     0.553032585     0.446425965
     0.837613614     0.608588140     0.022004351
     0.587613614     0.608588140     0.340320561
     0.837613614     0.497477029     0.234215158
     0.587613614     0.497477029     0.552531369
     0.955510614     0.553032585     0.128109754
     0.705510614     0.553032585     0.446425965
     0.705510614     0.608588140     0.022004351
     0.955510614     0.608588140     0.340320561
     0.705510614     0.497477029     0.234215158
     0.955510614     0.497477029     0.552531369
     0.521562114     0.553032585     0.212210807
     0.771562114     0.553032585     0.530527018
     0.771562114     0.608588140     0.106105404
     0.521562114     0.608588140     0.424421614
     0.521562114     0.497477029     0.000000000
     0.771562114     0.497477029     0.318316211
     0.087613614     0.719699251     0.128109754
     0.337613614     0.719699251     0.446425965
     0.337613614     0.775254807     0.022004351
     0.087613614     0.775254807     0.340320561
     0.337613614     0.997477029     0.234215158
     0.087613614     0.997477029     0.552531369
     0.455510614     0.719699251     0.128109754
     0.205510614     0.719699251     0.446425965
     0.205510614     0.775254807     0.022004351
     0.455510614     0.775254807     0.340320561
     0.205510614     0.997477029     0.234215158
     0.455510614     0.997477029     0.552531369
     0.021562114     0.719699251     0.212210807
     0.271562114     0.719699251     0.530527018
     0.271562114     0.775254807     0.106105404
     0.021562114     0.775254807     0.424421614
     0.021562114     0.997477029     0.000000000
     0.271562114     0.997477029     0.318316211
     0.087613614     0.886365918     0.128109754
     0.337613614     0.886365918     0.446425965
     0.337613614     0.941921474     0.022004351
     0.087613614     0.941921474     0.340320561
     0.337613614     0.830810363     0.234215158
     0.087613614     0.830810363     0.552531369
     0.455510614     0.886365918     0.128109754
     0.205510614     0.886365918     0.446425965
     0.205510614     0.941921474     0.022004351
     0.455510614     0.941921474     0.340320561
     0.205510614     0.830810363     0.234215158
     0.455510614     0.830810363     0.552531369
     0.021562114     0.886365918     0.212210807
     0.271562114     0.886365918     0.530527018
     0.271562114     0.941921474     0.106105404
     0.021562114     0.941921474     0.424421614
     0.021562114     0.830810363     0.000000000
     0.271562114     0.830810363     0.318316211
     0.587613614     0.719699251     0.128109754
     0.837613614     0.719699251     0.446425965
     0.837613614     0.775254807     0.022004351
     0.587613614     0.775254807     0.340320561
     0.837613614     0.997477029     0.234215158
     0.587613614     0.997477029     0.552531369
     0.955510614     0.719699251     0.128109754
     0.705510614     0.719699251     0.446425965
     0.705510614     0.775254807     0.022004351
     0.955510614     0.775254807     0.340320561
     0.705510614     0.997477029     0.234215158
     0.955510614     0.997477029     0.552531369
     0.521562114     0.719699251     0.212210807
     0.771562114     0.719699251     0.530527018
     0.771562114     0.775254807     0.106105404
     0.521562114     0.775254807     0.424421614
     0.521562114     0.997477029     0.000000000
     0.771562114     0.997477029     0.318316211
     0.587613614     0.886365918     0.128109754
     0.837613614     0.886365918     0.446425965
     0.837613614     0.941921474     0.022004351
     0.587613614     0.941921474     0.340320561
     0.837613614     0.830810363     0.234215158
     0.587613614     0.830810363     0.552531369
     0.955510614     0.886365918     0.128109754
     0.705510614     0.886365918     0.446425965
     0.705510614     0.941921474     0.022004351
     0.955510614     0.941921474     0.340320561
     0.705510614     0.830810363     0.234215158
     0.955510614     0.830810363     0.552531369
     0.521562114     0.886365918     0.212210807
     0.771562114     0.886365918     0.530527018
     0.771562114     0.941921474     0.106105404
     0.521562114     0.941921474     0.424421614
     0.521562114     0.830810363     0.000000000
     0.771562114     0.830810363     0.318316211
     0.437454614     0.140415140     0.191840480
     0.187454614     0.140415140     0.510156690
     0.187454614     0.029304029     0.085735076
     0.437454614     0.029304029     0.404051287
     0.187454614     0.084859585     0.297945883
     0.437454614     0.084859585     0.616262094
     0.105669614     0.140415140     0.191840480
     0.355669614     0.140415140     0.510156690
     0.355669614     0.029304029     0.085735076
     0.105669614     0.029304029     0.404051287
     0.355669614     0.084859585     0.297945883
     0.105669614     0.084859585     0.616262094
     0.021562114     0.140415140     0.084749357
     0.271562114     0.140415140     0.403065567
     0.021562114     0.029304029     0.296960164
     0.271562114     0.029304029     0.615276375
     0.271562114     0.084859585     0.190854760
     0.021562114     0.084859585     0.509170971
     0.437454614     0.307081807     0.191840480
     0.187454614     0.307081807     0.510156690
     0.187454614     0.195970696     0.085735076
     0.437454614     0.195970696     0.404051287
     0.187454614     0.251526251     0.297945883
     0.437454614     0.251526251     0.616262094
     0.105669614     0.307081807     0.191840480
     0.355669614     0.307081807     0.510156690
     0.355669614     0.195970696     0.085735076
     0.105669614     0.195970696     0.404051287
     0.355669614     0.251526251     0.297945883
     0.105669614     0.251526251     0.616262094
     0.021562114     0.307081807     0.084749357
     0.271562114     0.307081807     0.403065567
     0.021562114     0.195970696     0.296960164
     0.271562114     0.195970696     0.615276375
     0.271562114     0.251526251     0.190854760
     0.021562114     0.251526251     0.509170971
     0.937454614     0.140415140     0.191840480
     0.687454614     0.140415140     0.510156690
     0.687454614     0.029304029     0.085735076
     0.937454614     0.029304029     0.404051287
     0.687454614     0.084859585     0.297945883
     0.937454614     0.084859585     0.616262094
     0.605669614     0.140415140     0.191840480
     0.855669614     0.140415140     0.510156690
     0.855669614     0.029304029     0.085735076
     0.605669614     0.029304029     0.404051287
     0.855669614     0.084859585     0.297945883
     0.605669614     0.084859585     0.616262094
     0.521562114     0.140415140     0.084749357
     0.771562114     0.140415140     0.403065567
     0.521562114     0.029304029     0.296960164
     0.771562114     0.029304029     0.615276375
     0.771562114     0.084859585     0.190854760
     0.521562114     0.084859585     0.509170971
     0.937454614     0.307081807     0.191840480
     0.687454614     0.307081807     0.510156690
     0.687454614     0.195970696     0.085735076
     0.937454614     0.195970696     0.404051287
     0.687454614     0.251526251     0.297945883
     0.937454614     0.251526251     0.616262094
     0.605669614     0.307081807     0.191840480
     0.855669614     0.307081807     0.510156690
     0.855669614     0.195970696     0.085735076
     0.605669614     0.195970696     0.404051287
     0.855669614     0.251526251     0.297945883
     0.605669614     0.251526251     0.616262094
     0.521562114     0.307081807     0.084749357
     0.771562114     0.307081807     0.403065567
     0.521562114     0.195970696     0.296960164
     0.771562114     0.195970696     0.615276375
     0.771562114     0.251526251     0.190854760
     0.521562114     0.251526251     0.509170971
     0.437454614     0.473748474     0.191840480
     0.187454614     0.473748474     0.510156690
     0.187454614     0.362637363     0.085735076
     0.437454614     0.362637363     0.404051287
     0.187454614     0.418192918     0.297945883
     0.437454614     0.418192918     0.616262094
     0.105669614     0.473748474     0.191840480
     0.355669614     0.473748474     0.510156690
     0.355669614     0.362637363     0.085735076
     0.105669614     0.362637363     0.404051287
     0.355669614     0.418192918     0.297945883
     0.105669614     0.418192918     0.616262094
     0.021562114     0.473748474     0.084749357
     0.271562114     0.473748474     0.403065567
     0.021562114     0.362637363     0.296960164
     0.271562114     0.362637363     0.615276375
     0.271562114     0.418192918     0.190854760
     0.021562114     0.418192918     0.509170971
     0.437454614     0.640415140     0.191840480
     0.187454614     0.640415140     0.510156690
     0.187454614     0.529304029     0.085735076
     0.437454614     0.529304029     0.404051287
     0.187454614     0.584859585     0.297945883
     0.437454614     0.584859585     0.616262094
     0.105669614     0.640415140     0.191840480
     0.355669614     0.640415140     0.510156690
     0.355669614     0.529304029     0.085735076
     0.105669614     0.529304029     0.404051287
     0.355669614     0.584859585     0.297945883
     0.105669614     0.584859585     0.616262094
     0.021562114     0.640415140     0.084749357
     0.271562114     0.640415140     0.403065567
     0.021562114     0.529304029     0.296960164
     0.271562114     0.529304029     0.615276375
     0.271562114     0.584859585     0.190854760
     0.021562114     0.584859585     0.509170971
     0.937454614     0.473748474     0.191840480
     0.687454614     0.473748474     0.510156690
     0.687454614     0.362637363     0.085735076
     0.937454614     0.362637363     0.404051287
     0.687454614     0.418192918     0.297945883
     0.937454614     0.418192918     0.616262094
     0.605669614     0.473748474     0.191840480
     0.855669614     0.473748474     0.510156690
     0.855669614     0.362637363     0.085735076
     0.605669614     0.362637363     0.404051287
     0.855669614     0.418192918     0.297945883
     0.605669614     0.418192918     0.616262094
     0.521562114     0.473748474     0.084749357
     0.771562114     0.473748474     0.403065567
     0.521562114     0.362637363     0.296960164
     0.771562114     0.362637363     0.615276375
     0.771562114     0.418192918     0.190854760
     0.521562114     0.418192918     0.509170971
     0.937454614     0.640415140     0.191840480
     0.687454614     0.640415140     0.510156690
     0.687454614     0.529304029     0.085735076
     0.937454614     0.529304029     0.404051287
     0.687454614     0.584859585     0.297945883
     0.937454614     0.584859585     0.616262094
     0.605669614     0.640415140     0.191840480
     0.855669614     0.640415140     0.510156690
     0.855669614     0.529304029     0.085735076
     0.605669614     0.529304029     0.404051287
     0.855669614     0.584859585     0.297945883
     0.605669614     0.584859585     0.616262094
     0.521562114     0.640415140     0.084749357
     0.771562114     0.640415140     0.403065567
     0.521562114     0.529304029     0.296960164
     0.771562114     0.529304029     0.615276375
     0.771562114     0.584859585     0.190854760
     0.521562114     0.584859585     0.509170971
     0.437454614     0.807081807     0.191840480
     0.187454614     0.807081807     0.510156690
     0.187454614     0.695970696     0.085735076
     0.437454614     0.695970696     0.404051287
     0.187454614     0.751526251     0.297945883
     0.437454614     0.751526251     0.616262094
     0.105669614     0.807081807     0.191840480
     0.355669614     0.807081807     0.510156690
     0.355669614     0.695970696     0.085735076
     0.105669614     0.695970696     0.404051287
     0.355669614     0.751526251     0.297945883
     0.105669614     0.751526251     0.616262094
     0.021562114     0.807081807     0.084749357
     0.271562114     0.807081807     0.403065567
     0.021562114     0.695970696     0.296960164
     0.271562114     0.695970696     0.615276375
     0.271562114     0.751526251     0.190854760
     0.021562114     0.751526251     0.509170971
     0.437454614     0.973748474     0.191840480
     0.187454614     0.973748474     0.510156690
     0.187454614     0.862637363     0.085735076
     0.437454614     0.862637363     0.404051287
     0.187454614     0.918192918     0.297945883
     0.437454614     0.918192918     0.616262094
     0.105669614     0.973748474     0.191840480
     0.355669614     0.973748474     0.510156690
     0.355669614     0.862637363     0.085735076
     0.105669614     0.862637363     0.404051287
     0.355669614     0.918192918     0.297945883
     0.105669614     0.918192918     0.616262094
     0.021562114     0.973748474     0.084749357
     0.271562114     0.973748474     0.403065567
     0.021562114     0.862637363     0.296960164
     0.271562114     0.862637363     0.615276375
     0.271562114     0.918192918     0.190854760
     0.021562114     0.918192918     0.509170971
     0.937454614     0.807081807     0.191840480
     0.687454614     0.807081807     0.510156690
     0.687454614     0.695970696     0.085735076
     0.937454614     0.695970696     0.404051287
     0.687454614     0.751526251     0.297945883
     0.937454614     0.751526251     0.616262094
     0.605669614     0.807081807     0.191840480
     0.855669614     0.807081807     0.510156690
     0.855669614     0.695970696     0.085735076
     0.605669614     0.695970696     0.404051287
     0.855669614     0.751526251     0.297945883
     0.605669614     0.751526251     0.616262094
     0.521562114     0.807081807     0.084749357
     0.771562114     0.807081807     0.403065567
     0.521562114     0.695970696     0.296960164
     0.771562114     0.695970696     0.615276375
     0.771562114     0.751526251     0.190854760
     0.521562114     0.751526251     0.509170971
     0.937454614     0.973748474     0.191840480
     0.687454614     0.973748474     0.510156690
     0.687454614     0.862637363     0.085735076
     0.937454614     0.862637363     0.404051287
     0.687454614     0.918192918     0.297945883
     0.937454614     0.918192918     0.616262094
     0.605669614     0.973748474     0.191840480
     0.855669614     0.973748474     0.510156690
     0.855669614     0.862637363     0.085735076
     0.605669614     0.862637363     0.404051287
     0.855669614     0.918192918     0.297945883
     0.605669614     0.918192918     0.616262094
     0.521562114     0.973748474     0.084749357
     0.771562114     0.973748474     0.403065567
     0.521562114     0.862637363     0.296960164
     0.771562114     0.862637363     0.615276375
     0.771562114     0.918192918     0.190854760
     0.521562114     0.918192918     0.509170971
