POSCAR made from 101-6.xsd file
1.0
        5.5300977567       -9.5784102855       -2.0928533957
        5.5300977567        9.5784102855       -2.0928533957
        6.3708365337       -0.0000000000       16.8341217286
   Ni    S
   36   36
Direct
     0.380179964     0.466512696     0.163120571
     0.286220098     0.372552830     0.326241142
     0.474139830     0.060472578    -0.000000000
     0.418323094     0.240449834     0.326241142
     0.106242841     0.428369567     0.000000000
     0.012282975     0.334409700     0.163120571
     0.213521077     0.167750813     0.043097434
     0.119561211     0.073790947     0.206218005
     0.025601344     0.479831065     0.369338576
     0.880179964     0.466512696     0.163120571
     0.786220098     0.372552830     0.326241142
     0.974139830     0.060472578     0.000000000
     0.918323094     0.240449834     0.326241142
     0.606242841     0.428369567     0.000000000
     0.512282975     0.334409700     0.163120571
     0.713521077     0.167750813     0.043097434
     0.619561211     0.073790947     0.206218005
     0.525601344     0.479831065     0.369338576
     0.380179964     0.966512696     0.163120571
     0.286220098     0.872552830     0.326241142
     0.474139830     0.560472578     0.000000000
     0.418323094     0.740449834     0.326241142
     0.106242841     0.928369567     0.000000000
     0.012282975     0.834409700     0.163120571
     0.213521077     0.667750813     0.043097434
     0.119561211     0.573790947     0.206218005
     0.025601344     0.979831065     0.369338576
     0.880179964     0.966512696     0.163120571
     0.786220098     0.872552830     0.326241142
     0.974139830     0.560472578    -0.000000000
     0.918323094     0.740449834     0.326241142
     0.606242841     0.928369567     0.000000000
     0.512282975     0.834409700     0.163120571
     0.713521077     0.667750813     0.043097434
     0.619561211     0.573790947     0.206218005
     0.525601344     0.979831065     0.369338576
     0.206383224     0.492397950     0.118182050
     0.112423358     0.398438084     0.281302621
     0.018463491     0.304478218     0.444423192
     0.038168229     0.160612960     0.118182050
     0.350248481     0.472693213     0.444423192
     0.444208348     0.066653094     0.281302621
     0.401564137     0.355793873     0.063303396
     0.307604271     0.261834007     0.226423967
     0.213644404     0.167874140     0.389544538
     0.706383224     0.492397950     0.118182050
     0.612423358     0.398438084     0.281302621
     0.518463491     0.304478218     0.444423192
     0.538168229     0.160612960     0.118182050
     0.850248481     0.472693213     0.444423192
     0.944208348     0.066653094     0.281302621
     0.901564137     0.355793873     0.063303396
     0.807604271     0.261834007     0.226423967
     0.713644404     0.167874140     0.389544538
     0.206383224     0.992397950     0.118182050
     0.112423358     0.898438084     0.281302621
     0.018463491     0.804478218     0.444423192
     0.038168229     0.660612960     0.118182050
     0.350248481     0.972693213     0.444423192
     0.444208348     0.566653094     0.281302621
     0.401564137     0.855793873     0.063303396
     0.307604271     0.761834007     0.226423967
     0.213644404     0.667874140     0.389544538
     0.706383224     0.992397950     0.118182050
     0.612423358     0.898438084     0.281302621
     0.518463491     0.804478218     0.444423192
     0.538168229     0.660612960     0.118182050
     0.850248481     0.972693213     0.444423192
     0.944208348     0.566653094     0.281302621
     0.901564137     0.855793873     0.063303396
     0.807604271     0.761834007     0.226423967
     0.713644404     0.667874140     0.389544538
