POSCAR made from 110-2.xsd file
1.0
        0.0000000000       -0.0000000000        6.2785600000
        5.5300977567       -9.5784102855       -2.0928533957
       20.8034192933       12.0108597290       -0.0000000000
   Ni    S
   36   36
Direct
     0.246116405     0.003035689     0.132295807
     0.246116405     0.003035689     0.531035373
     0.496116405     0.253035682     0.331665590
     0.312167905     0.201190184     0.079621114
     0.312167905     0.201190184     0.478360680
     0.062167905     0.451190176     0.278990897
     0.312167905     0.201190184     0.184970500
     0.312167905     0.201190184     0.583710066
     0.062167905     0.451190176     0.384340283
     0.746116405     0.003035689     0.132295807
     0.746116405     0.003035689     0.531035373
     0.996116405     0.253035682     0.331665590
     0.812167905     0.201190184     0.079621114
     0.812167905     0.201190184     0.478360680
     0.562167905     0.451190176     0.278990897
     0.812167905     0.201190184     0.184970500
     0.812167905     0.201190184     0.583710066
     0.562167905     0.451190176     0.384340283
     0.246116405     0.503035689     0.132295807
     0.246116405     0.503035689     0.531035373
     0.496116405     0.753035682     0.331665590
     0.312167905     0.701190184     0.079621114
     0.312167905     0.701190184     0.478360680
     0.062167905     0.951190176     0.278990897
     0.312167905     0.701190184     0.184970500
     0.312167905     0.701190184     0.583710066
     0.062167905     0.951190176     0.384340283
     0.746116405     0.503035689     0.132295807
     0.746116405     0.503035689     0.531035373
     0.996116405     0.753035682     0.331665590
     0.812167905     0.701190184     0.079621114
     0.812167905     0.701190184     0.478360680
     0.562167905     0.951190176     0.278990897
     0.812167905     0.701190184     0.184970500
     0.812167905     0.701190184     0.583710066
     0.562167905     0.951190176     0.384340283
     0.108370071     0.303353680     0.132295807
     0.108370071     0.303353680     0.531035373
     0.358370071     0.053353688     0.331665590
     0.024262571     0.051031188     0.199369783
     0.274262571     0.301031181     0.000000000
     0.274262571     0.301031181     0.398739566
     0.024262571     0.051031188     0.065221831
     0.024262571     0.051031188     0.463961397
     0.274262571     0.301031181     0.264591614
     0.608370071     0.303353680     0.132295807
     0.608370071     0.303353680     0.531035373
     0.858370071     0.053353688     0.331665590
     0.524262571     0.051031188     0.199369783
     0.774262571     0.301031181     0.000000000
     0.774262571     0.301031181     0.398739566
     0.524262571     0.051031188     0.065221831
     0.524262571     0.051031188     0.463961397
     0.774262571     0.301031181     0.264591614
     0.108370071     0.803353680     0.132295807
     0.108370071     0.803353680     0.531035373
     0.358370071     0.553353688     0.331665590
     0.024262571     0.551031188     0.199369783
     0.274262571     0.801031181    -0.000000000
     0.274262571     0.801031181     0.398739566
     0.024262571     0.551031188     0.065221831
     0.024262571     0.551031188     0.463961397
     0.274262571     0.801031181     0.264591614
     0.608370071     0.803353680     0.132295807
     0.608370071     0.803353680     0.531035373
     0.858370071     0.553353688     0.331665590
     0.524262571     0.551031188     0.199369783
     0.774262571     0.801031181    -0.000000000
     0.774262571     0.801031181     0.398739566
     0.524262571     0.551031188     0.065221831
     0.524262571     0.551031188     0.463961397
     0.774262571     0.801031181     0.264591614
