VASP POSCAR made from Millerite-Rlx-2x2x2.xsd file
1.0
       16.5902927757       -9.5784100000       -0.0000000000
        0.0000000000       19.1568200000        0.0000000000
        0.0000000000       -0.0000000000        6.2785600000
   Ni    S
   72   72
Direct
     0.455965667     0.044034333     0.237791167
     0.289299000     0.210701000     0.404457833
     0.122632333     0.377367667     0.071124500
     0.455965667     0.411931333     0.237791167
     0.289299000     0.078598000     0.404457833
     0.122632333     0.245264667     0.071124500
     0.088068667     0.044034333     0.237791167
     0.421402000     0.210701000     0.404457833
     0.254735333     0.377367667     0.071124500
     0.955965667     0.044034333     0.237791167
     0.789299000     0.210701000     0.404457833
     0.622632333     0.377367667     0.071124500
     0.955965667     0.411931333     0.237791167
     0.789299000     0.078598000     0.404457833
     0.622632333     0.245264667     0.071124500
     0.588068667     0.044034333     0.237791167
     0.921402000     0.210701000     0.404457833
     0.754735333     0.377367667     0.071124500
     0.455965667     0.544034333     0.237791167
     0.289299000     0.710701000     0.404457833
     0.122632333     0.877367667     0.071124500
     0.455965667     0.911931333     0.237791167
     0.289299000     0.578598000     0.404457833
     0.122632333     0.745264667     0.071124500
     0.088068667     0.544034333     0.237791167
     0.421402000     0.710701000     0.404457833
     0.254735333     0.877367667     0.071124500
     0.955965667     0.544034333     0.237791167
     0.789299000     0.710701000     0.404457833
     0.622632333     0.877367667     0.071124500
     0.955965667     0.911931333     0.237791167
     0.789299000     0.578598000     0.404457833
     0.622632333     0.745264667     0.071124500
     0.588068667     0.544034333     0.237791167
     0.921402000     0.710701000     0.404457833
     0.754735333     0.877367667     0.071124500
     0.455965667     0.044034333     0.737791167
     0.289299000     0.210701000     0.904457833
     0.122632333     0.377367667     0.571124500
     0.455965667     0.411931333     0.737791167
     0.289299000     0.078598000     0.904457833
     0.122632333     0.245264667     0.571124500
     0.088068667     0.044034333     0.737791167
     0.421402000     0.210701000     0.904457833
     0.254735333     0.377367667     0.571124500
     0.955965667     0.044034333     0.737791167
     0.789299000     0.210701000     0.904457833
     0.622632333     0.377367667     0.571124500
     0.955965667     0.411931333     0.737791167
     0.789299000     0.078598000     0.904457833
     0.622632333     0.245264667     0.571124500
     0.588068667     0.044034333     0.737791167
     0.921402000     0.210701000     0.904457833
     0.754735333     0.377367667     0.571124500
     0.455965667     0.544034333     0.737791167
     0.289299000     0.710701000     0.904457833
     0.122632333     0.877367667     0.571124500
     0.455965667     0.911931333     0.737791167
     0.289299000     0.578598000     0.904457833
     0.122632333     0.745264667     0.571124500
     0.088068667     0.544034333     0.737791167
     0.421402000     0.710701000     0.904457833
     0.254735333     0.877367667     0.571124500
     0.955965667     0.544034333     0.737791167
     0.789299000     0.710701000     0.904457833
     0.622632333     0.877367667     0.571124500
     0.955965667     0.911931333     0.737791167
     0.789299000     0.578598000     0.904457833
     0.622632333     0.745264667     0.571124500
     0.588068667     0.544034333     0.737791167
     0.921402000     0.710701000     0.904457833
     0.754735333     0.877367667     0.571124500
     0.056071667     0.443928333     0.499938833
     0.389405000     0.110595000     0.166605500
     0.222738333     0.277261667     0.333272167
     0.056071667     0.112143333     0.499938833
     0.389405000     0.278810000     0.166605500
     0.222738333     0.445476667     0.333272167
     0.387856667     0.443928333     0.499938833
     0.221190000     0.110595000     0.166605500
     0.054523333     0.277261667     0.333272167
     0.556071667     0.443928333     0.499938833
     0.889405000     0.110595000     0.166605500
     0.722738333     0.277261667     0.333272167
     0.556071667     0.112143333     0.499938833
     0.889405000     0.278810000     0.166605500
     0.722738333     0.445476667     0.333272167
     0.887856667     0.443928333     0.499938833
     0.721190000     0.110595000     0.166605500
     0.554523333     0.277261667     0.333272167
     0.056071667     0.943928333     0.499938833
     0.389405000     0.610595000     0.166605500
     0.222738333     0.777261667     0.333272167
     0.056071667     0.612143333     0.499938833
     0.389405000     0.778810000     0.166605500
     0.222738333     0.945476667     0.333272167
     0.387856667     0.943928333     0.499938833
     0.221190000     0.610595000     0.166605500
     0.054523333     0.777261667     0.333272167
     0.556071667     0.943928333     0.499938833
     0.889405000     0.610595000     0.166605500
     0.722738333     0.777261667     0.333272167
     0.556071667     0.612143333     0.499938833
     0.889405000     0.778810000     0.166605500
     0.722738333     0.945476667     0.333272167
     0.887856667     0.943928333     0.499938833
     0.721190000     0.610595000     0.166605500
     0.554523333     0.777261667     0.333272167
     0.056071667     0.443928333     0.999938833
     0.389405000     0.110595000     0.666605500
     0.222738333     0.277261667     0.833272167
     0.056071667     0.112143333     0.999938833
     0.389405000     0.278810000     0.666605500
     0.222738333     0.445476667     0.833272167
     0.387856667     0.443928333     0.999938833
     0.221190000     0.110595000     0.666605500
     0.054523333     0.277261667     0.833272167
     0.556071667     0.443928333     0.999938833
     0.889405000     0.110595000     0.666605500
     0.722738333     0.277261667     0.833272167
     0.556071667     0.112143333     0.999938833
     0.889405000     0.278810000     0.666605500
     0.722738333     0.445476667     0.833272167
     0.887856667     0.443928333     0.999938833
     0.721190000     0.110595000     0.666605500
     0.554523333     0.277261667     0.833272167
     0.056071667     0.943928333     0.999938833
     0.389405000     0.610595000     0.666605500
     0.222738333     0.777261667     0.833272167
     0.056071667     0.612143333     0.999938833
     0.389405000     0.778810000     0.666605500
     0.222738333     0.945476667     0.833272167
     0.387856667     0.943928333     0.999938833
     0.221190000     0.610595000     0.666605500
     0.054523333     0.777261667     0.833272167
     0.556071667     0.943928333     0.999938833
     0.889405000     0.610595000     0.666605500
     0.722738333     0.777261667     0.833272167
     0.556071667     0.612143333     0.999938833
     0.889405000     0.778810000     0.666605500
     0.722738333     0.945476667     0.833272167
     0.887856667     0.943928333     0.999938833
     0.721190000     0.610595000     0.666605500
     0.554523333     0.777261667     0.833272167
