POSCAR made from 101-3.xsd file
1.0
        8.2951463879       -4.7892050000       -3.1392800000
        0.0000000000        9.5784100000        0.0000000000
        7.6963469989       -0.0000000000       20.3366138120
   Ni    S
   36   36
Direct
     0.439706003     0.282868818     0.082626070
     0.314426177     0.220228906     0.217653050
     0.189146352     0.157588993     0.352680030
     0.063866526     0.094949080     0.487707010
     0.106372670     0.616202152     0.082626070
     0.981092844     0.553562239     0.217653050
     0.855813018     0.490922326     0.352680030
     0.730533193     0.428282413     0.487707010
     0.773039336     0.949535485     0.082626070
     0.647759511     0.886895572     0.217653050
     0.522479685     0.824255659     0.352680030
     0.397199859     0.761615747     0.487707010
     0.439706003     0.018662818     0.082626070
     0.314426177    -0.043977094     0.217653050
     0.189146352    -0.106617007     0.352680030
     0.063866526    -0.169256920     0.487707010
     0.106372670     0.351996152     0.082626070
     0.981092844     0.289356239     0.217653050
     0.855813018     0.226716326     0.352680030
     0.730533193     0.164076413     0.487707010
     0.773039336     0.685329485     0.082626070
     0.647759511     0.622689572     0.217653050
     0.522479685     0.560049659     0.352680030
     0.397199859     0.497409747     0.487707010
     0.670812321     0.266318978     0.118301008
     0.545532496     0.203679065     0.253327988
     0.420252670     0.141039152     0.388354968
     0.294972844     0.078399239     0.523381948
     0.337478988     0.599652311     0.118301008
     0.212199162     0.537012398     0.253327988
     0.086919337     0.474372485     0.388354968
     0.961639511     0.411732572     0.523381948
     0.004145655     0.932985644     0.118301008
     0.878865829     0.870345731     0.253327988
     0.753586003     0.807705819     0.388354968
     0.628306178     0.745065906     0.523381948
     0.674431676     0.099913655     0.045427127
     0.549151851     0.037273742     0.180454107
     0.423872025    -0.025366171     0.315481087
     0.298592199    -0.088006083     0.450508067
     0.341098343     0.433246988     0.045427127
     0.215818517     0.370607076     0.180454107
     0.090538692     0.307967163     0.315481087
     0.965258866     0.245327250     0.450508067
     0.007765010     0.766580322     0.045427127
     0.882485184     0.703940409     0.180454107
     0.757205358     0.641300496     0.315481087
     0.631925533     0.578660583     0.450508067
     0.674431676     0.436343655     0.045427127
     0.549151851     0.373703742     0.180454107
     0.423872025     0.311063829     0.315481087
     0.298592199     0.248423917     0.450508067
     0.341098343     0.769676988     0.045427127
     0.215818517     0.707037076     0.180454107
     0.090538692     0.644397163     0.315481087
     0.965258866     0.581757250     0.450508067
     0.007765010     0.103010322     0.045427127
     0.882485184     0.040370409     0.180454107
     0.757205358     0.977730496     0.315481087
     0.631925533     0.915090583     0.450508067
     0.380149568     0.120987601    -0.000000000
     0.254869742     0.058347688     0.135026980
     0.129589917    -0.004292225     0.270053960
     0.004310091    -0.066932138     0.405080940
     0.921536409     0.391681021     0.135026980
     0.796256583     0.329041109     0.270053960
     0.670976758     0.266401196     0.405080940
     0.545696932     0.203761283     0.540107920
     0.588203076     0.725014355     0.135026980
     0.462923250     0.662374442     0.270053960
     0.337643424     0.599734529     0.405080940
     0.212363599     0.537094616     0.540107920
