POSCAR made from 101-2.xsd file
1.0
        8.2951463879       -4.7892050000       -3.1392800000
        0.0000000000        9.5784100000        0.0000000000
        7.6963469989       -0.0000000000       20.3366138120
   Ni    S
   36   36
Direct
     0.439706001     0.282868819     0.037198943
     0.314426175     0.220228906     0.172225923
     0.189146349     0.157588993     0.307252903
     0.063866524     0.094949081     0.442279883
     0.106372667     0.616202152     0.037198943
     0.981092842     0.553562240     0.172225923
     0.855813016     0.490922327     0.307252903
     0.730533190     0.428282414     0.442279883
     0.773039334     0.949535486     0.037198943
     0.647759508     0.886895573     0.172225923
     0.522479683     0.824255660     0.307252903
     0.397199857     0.761615747     0.442279883
     0.439706001     0.018662819     0.037198943
     0.314426175    -0.043977094     0.172225923
     0.189146349    -0.106617007     0.307252903
     0.063866524    -0.169256919     0.442279883
     0.106372667     0.351996152     0.037198943
     0.981092842     0.289356240     0.172225923
     0.855813016     0.226716327     0.307252903
     0.730533190     0.164076414     0.442279883
     0.773039334     0.685329486     0.037198943
     0.647759508     0.622689573     0.172225923
     0.522479683     0.560049660     0.307252903
     0.397199857     0.497409747     0.442279883
     0.670812319     0.266318978     0.072873881
     0.545532493     0.203679065     0.207900861
     0.420252668     0.141039153     0.342927841
     0.294972842     0.078399240     0.477954821
     0.337478986     0.599652312     0.072873881
     0.212199160     0.537012399     0.207900861
     0.086919334     0.474372486     0.342927841
     0.961639509     0.411732573     0.477954821
     0.004145652     0.932985645     0.072873881
     0.878865827     0.870345732     0.207900861
     0.753586001     0.807705819     0.342927841
     0.628306175     0.745065906     0.477954821
     0.549151848     0.037273743     0.135026980
     0.423872022    -0.025366170     0.270053960
     0.298592197    -0.088006083     0.405080940
     0.173312371     0.849354004     0.540107920
     0.341098340     0.433246989     0.000000000
     0.215818515     0.370607076     0.135026980
     0.090538689     0.307967163     0.270053960
     0.965258863     0.245327250     0.405080940
     0.007765007     0.766580322     0.000000000
     0.882485181     0.703940409     0.135026980
     0.757205356     0.641300497     0.270053960
     0.631925530     0.578660584     0.405080940
     0.549151848     0.373703743     0.135026980
     0.423872022     0.311063830     0.270053960
     0.298592197     0.248423917     0.405080940
     0.173312371     1.185784004     0.540107920
     0.341098340     0.769676989     0.000000000
     0.215818515     0.707037076     0.135026980
     0.090538689     0.644397163     0.270053960
     0.965258863     0.581757250     0.405080940
     0.007765007     0.103010322     0.000000000
     0.882485181     0.040370409     0.135026980
     0.757205356     0.977730497     0.270053960
     0.631925530     0.915090584     0.405080940
     0.254869740     0.058347689     0.089599853
     0.129589914    -0.004292224     0.224626833
     0.004310089    -0.066932137     0.359653813
    -0.120969737     0.870427950     0.494680794
     0.921536407     0.391681022     0.089599853
     0.796256581     0.329041109     0.224626833
     0.670976755     0.266401196     0.359653813
     0.545696930     0.203761284     0.494680794
     0.588203073     0.725014355     0.089599853
     0.462923248     0.662374443     0.224626833
     0.337643422     0.599734530     0.359653813
     0.212363596     0.537094617     0.494680794
