VASP POSCAR made from 100-4.xsd file
1.0
        0.0000000000       19.1568200000        0.0000000000
        0.0000000000       -0.0000000000       18.8356800000
       26.5646054724        0.0000000000       -0.0000000000
   Ni    S
  216  216
Direct
     0.087613614     0.053032585     0.145656586
     0.337613614     0.053032585     0.457919699
     0.337613614     0.108588140     0.041568882
     0.087613614     0.108588140     0.353831994
     0.337613614     0.330810363     0.249744290
     0.087613614     0.330810363     0.562007403
     0.455510614     0.053032585     0.145656586
     0.205510614     0.053032585     0.457919699
     0.205510614     0.108588140     0.041568882
     0.455510614     0.108588140     0.353831994
     0.205510614     0.330810363     0.249744290
     0.455510614     0.330810363     0.562007403
     0.021562114     0.053032585     0.228158374
     0.271562114     0.053032585     0.540421487
     0.271562114     0.108588140     0.124070670
     0.021562114     0.108588140     0.436333782
     0.021562114     0.330810363     0.019982966
     0.271562114     0.330810363     0.332246078
     0.087613614     0.219699251     0.145656586
     0.337613614     0.219699251     0.457919699
     0.337613614     0.275254807     0.041568882
     0.087613614     0.275254807     0.353831994
     0.337613614     0.164143696     0.249744290
     0.087613614     0.164143696     0.562007403
     0.455510614     0.219699251     0.145656586
     0.205510614     0.219699251     0.457919699
     0.205510614     0.275254807     0.041568882
     0.455510614     0.275254807     0.353831994
     0.205510614     0.164143696     0.249744290
     0.455510614     0.164143696     0.562007403
     0.021562114     0.219699251     0.228158374
     0.271562114     0.219699251     0.540421487
     0.271562114     0.275254807     0.124070670
     0.021562114     0.275254807     0.436333782
     0.021562114     0.164143696     0.019982966
     0.271562114     0.164143696     0.332246078
     0.587613614     0.053032585     0.145656586
     0.837613614     0.053032585     0.457919699
     0.837613614     0.108588140     0.041568882
     0.587613614     0.108588140     0.353831994
     0.837613614     0.330810363     0.249744290
     0.587613614     0.330810363     0.562007403
     0.955510614     0.053032585     0.145656586
     0.705510614     0.053032585     0.457919699
     0.705510614     0.108588140     0.041568882
     0.955510614     0.108588140     0.353831994
     0.705510614     0.330810363     0.249744290
     0.955510614     0.330810363     0.562007403
     0.521562114     0.053032585     0.228158374
     0.771562114     0.053032585     0.540421487
     0.771562114     0.108588140     0.124070670
     0.521562114     0.108588140     0.436333782
     0.521562114     0.330810363     0.019982966
     0.771562114     0.330810363     0.332246078
     0.587613614     0.219699251     0.145656586
     0.837613614     0.219699251     0.457919699
     0.837613614     0.275254807     0.041568882
     0.587613614     0.275254807     0.353831994
     0.837613614     0.164143696     0.249744290
     0.587613614     0.164143696     0.562007403
     0.955510614     0.219699251     0.145656586
     0.705510614     0.219699251     0.457919699
     0.705510614     0.275254807     0.041568882
     0.955510614     0.275254807     0.353831994
     0.705510614     0.164143696     0.249744290
     0.955510614     0.164143696     0.562007403
     0.521562114     0.219699251     0.228158374
     0.771562114     0.219699251     0.540421487
     0.771562114     0.275254807     0.124070670
     0.521562114     0.275254807     0.436333782
     0.521562114     0.164143696     0.019982966
     0.771562114     0.164143696     0.332246078
     0.087613614     0.386365918     0.145656586
     0.337613614     0.386365918     0.457919699
     0.337613614     0.441921474     0.041568882
     0.087613614     0.441921474     0.353831994
     0.337613614     0.664143696     0.249744290
     0.087613614     0.664143696     0.562007403
     0.455510614     0.386365918     0.145656586
     0.205510614     0.386365918     0.457919699
     0.205510614     0.441921474     0.041568882
     0.455510614     0.441921474     0.353831994
     0.205510614     0.664143696     0.249744290
     0.455510614     0.664143696     0.562007403
     0.021562114     0.386365918     0.228158374
     0.271562114     0.386365918     0.540421487
     0.271562114     0.441921474     0.124070670
     0.021562114     0.441921474     0.436333782
     0.021562114     0.664143696     0.019982966
     0.271562114     0.664143696     0.332246078
     0.087613614     0.553032585     0.145656586
     0.337613614     0.553032585     0.457919699
     0.337613614     0.608588140     0.041568882
     0.087613614     0.608588140     0.353831994
     0.337613614     0.497477029     0.249744290
     0.087613614     0.497477029     0.562007403
     0.455510614     0.553032585     0.145656586
     0.205510614     0.553032585     0.457919699
     0.205510614     0.608588140     0.041568882
     0.455510614     0.608588140     0.353831994
     0.205510614     0.497477029     0.249744290
     0.455510614     0.497477029     0.562007403
     0.021562114     0.553032585     0.228158374
     0.271562114     0.553032585     0.540421487
     0.271562114     0.608588140     0.124070670
     0.021562114     0.608588140     0.436333782
     0.021562114     0.497477029     0.019982966
     0.271562114     0.497477029     0.332246078
     0.587613614     0.386365918     0.145656586
     0.837613614     0.386365918     0.457919699
     0.837613614     0.441921474     0.041568882
     0.587613614     0.441921474     0.353831994
     0.837613614     0.664143696     0.249744290
     0.587613614     0.664143696     0.562007403
     0.955510614     0.386365918     0.145656586
     0.705510614     0.386365918     0.457919699
     0.705510614     0.441921474     0.041568882
     0.955510614     0.441921474     0.353831994
     0.705510614     0.664143696     0.249744290
     0.955510614     0.664143696     0.562007403
     0.521562114     0.386365918     0.228158374
     0.771562114     0.386365918     0.540421487
     0.771562114     0.441921474     0.124070670
     0.521562114     0.441921474     0.436333782
     0.521562114     0.664143696     0.019982966
     0.771562114     0.664143696     0.332246078
     0.587613614     0.553032585     0.145656586
     0.837613614     0.553032585     0.457919699
     0.837613614     0.608588140     0.041568882
     0.587613614     0.608588140     0.353831994
     0.837613614     0.497477029     0.249744290
     0.587613614     0.497477029     0.562007403
     0.955510614     0.553032585     0.145656586
     0.705510614     0.553032585     0.457919699
     0.705510614     0.608588140     0.041568882
     0.955510614     0.608588140     0.353831994
     0.705510614     0.497477029     0.249744290
     0.955510614     0.497477029     0.562007403
     0.521562114     0.553032585     0.228158374
     0.771562114     0.553032585     0.540421487
     0.771562114     0.608588140     0.124070670
     0.521562114     0.608588140     0.436333782
     0.521562114     0.497477029     0.019982966
     0.771562114     0.497477029     0.332246078
     0.087613614     0.719699251     0.145656586
     0.337613614     0.719699251     0.457919699
     0.337613614     0.775254807     0.041568882
     0.087613614     0.775254807     0.353831994
     0.337613614     0.997477029     0.249744290
     0.087613614     0.997477029     0.562007403
     0.455510614     0.719699251     0.145656586
     0.205510614     0.719699251     0.457919699
     0.205510614     0.775254807     0.041568882
     0.455510614     0.775254807     0.353831994
     0.205510614     0.997477029     0.249744290
     0.455510614     0.997477029     0.562007403
     0.021562114     0.719699251     0.228158374
     0.271562114     0.719699251     0.540421487
     0.271562114     0.775254807     0.124070670
     0.021562114     0.775254807     0.436333782
     0.021562114     0.997477029     0.019982966
     0.271562114     0.997477029     0.332246078
     0.087613614     0.886365918     0.145656586
     0.337613614     0.886365918     0.457919699
     0.337613614     0.941921474     0.041568882
     0.087613614     0.941921474     0.353831994
     0.337613614     0.830810363     0.249744290
     0.087613614     0.830810363     0.562007403
     0.455510614     0.886365918     0.145656586
     0.205510614     0.886365918     0.457919699
     0.205510614     0.941921474     0.041568882
     0.455510614     0.941921474     0.353831994
     0.205510614     0.830810363     0.249744290
     0.455510614     0.830810363     0.562007403
     0.021562114     0.886365918     0.228158374
     0.271562114     0.886365918     0.540421487
     0.271562114     0.941921474     0.124070670
     0.021562114     0.941921474     0.436333782
     0.021562114     0.830810363     0.019982966
     0.271562114     0.830810363     0.332246078
     0.587613614     0.719699251     0.145656586
     0.837613614     0.719699251     0.457919699
     0.837613614     0.775254807     0.041568882
     0.587613614     0.775254807     0.353831994
     0.837613614     0.997477029     0.249744290
     0.587613614     0.997477029     0.562007403
     0.955510614     0.719699251     0.145656586
     0.705510614     0.719699251     0.457919699
     0.705510614     0.775254807     0.041568882
     0.955510614     0.775254807     0.353831994
     0.705510614     0.997477029     0.249744290
     0.955510614     0.997477029     0.562007403
     0.521562114     0.719699251     0.228158374
     0.771562114     0.719699251     0.540421487
     0.771562114     0.775254807     0.124070670
     0.521562114     0.775254807     0.436333782
     0.521562114     0.997477029     0.019982966
     0.771562114     0.997477029     0.332246078
     0.587613614     0.886365918     0.145656586
     0.837613614     0.886365918     0.457919699
     0.837613614     0.941921474     0.041568882
     0.587613614     0.941921474     0.353831994
     0.837613614     0.830810363     0.249744290
     0.587613614     0.830810363     0.562007403
     0.955510614     0.886365918     0.145656586
     0.705510614     0.886365918     0.457919699
     0.705510614     0.941921474     0.041568882
     0.955510614     0.941921474     0.353831994
     0.705510614     0.830810363     0.249744290
     0.955510614     0.830810363     0.562007403
     0.521562114     0.886365918     0.228158374
     0.771562114     0.886365918     0.540421487
     0.771562114     0.941921474     0.124070670
     0.521562114     0.941921474     0.436333782
     0.521562114     0.830810363     0.019982966
     0.771562114     0.830810363     0.332246078
     0.437454614     0.140415140     0.208175408
     0.187454614     0.140415140     0.520438521
     0.187454614     0.029304029     0.104087704
     0.437454614     0.029304029     0.416350817
     0.437454614     0.084859585     0.000000000
     0.187454614     0.084859585     0.312263113
     0.105669614     0.140415140     0.208175408
     0.355669614     0.140415140     0.520438521
     0.355669614     0.029304029     0.104087704
     0.105669614     0.029304029     0.416350817
     0.105669614     0.084859585     0.000000000
     0.355669614     0.084859585     0.312263113
     0.021562114     0.140415140     0.103120729
     0.271562114     0.140415140     0.415383842
     0.021562114     0.029304029     0.311296138
     0.271562114     0.029304029     0.623559250
     0.271562114     0.084859585     0.207208434
     0.021562114     0.084859585     0.519471546
     0.437454614     0.307081807     0.208175408
     0.187454614     0.307081807     0.520438521
     0.187454614     0.195970696     0.104087704
     0.437454614     0.195970696     0.416350817
     0.437454614     0.251526251     0.000000000
     0.187454614     0.251526251     0.312263113
     0.105669614     0.307081807     0.208175408
     0.355669614     0.307081807     0.520438521
     0.355669614     0.195970696     0.104087704
     0.105669614     0.195970696     0.416350817
     0.105669614     0.251526251     0.000000000
     0.355669614     0.251526251     0.312263113
     0.021562114     0.307081807     0.103120729
     0.271562114     0.307081807     0.415383842
     0.021562114     0.195970696     0.311296138
     0.271562114     0.195970696     0.623559250
     0.271562114     0.251526251     0.207208434
     0.021562114     0.251526251     0.519471546
     0.937454614     0.140415140     0.208175408
     0.687454614     0.140415140     0.520438521
     0.687454614     0.029304029     0.104087704
     0.937454614     0.029304029     0.416350817
     0.937454614     0.084859585     0.000000000
     0.687454614     0.084859585     0.312263113
     0.605669614     0.140415140     0.208175408
     0.855669614     0.140415140     0.520438521
     0.855669614     0.029304029     0.104087704
     0.605669614     0.029304029     0.416350817
     0.605669614     0.084859585     0.000000000
     0.855669614     0.084859585     0.312263113
     0.521562114     0.140415140     0.103120729
     0.771562114     0.140415140     0.415383842
     0.521562114     0.029304029     0.311296138
     0.771562114     0.029304029     0.623559250
     0.771562114     0.084859585     0.207208434
     0.521562114     0.084859585     0.519471546
     0.937454614     0.307081807     0.208175408
     0.687454614     0.307081807     0.520438521
     0.687454614     0.195970696     0.104087704
     0.937454614     0.195970696     0.416350817
     0.937454614     0.251526251     0.000000000
     0.687454614     0.251526251     0.312263113
     0.605669614     0.307081807     0.208175408
     0.855669614     0.307081807     0.520438521
     0.855669614     0.195970696     0.104087704
     0.605669614     0.195970696     0.416350817
     0.605669614     0.251526251     0.000000000
     0.855669614     0.251526251     0.312263113
     0.521562114     0.307081807     0.103120729
     0.771562114     0.307081807     0.415383842
     0.521562114     0.195970696     0.311296138
     0.771562114     0.195970696     0.623559250
     0.771562114     0.251526251     0.207208434
     0.521562114     0.251526251     0.519471546
     0.437454614     0.473748474     0.208175408
     0.187454614     0.473748474     0.520438521
     0.187454614     0.362637363     0.104087704
     0.437454614     0.362637363     0.416350817
     0.437454614     0.418192918     0.000000000
     0.187454614     0.418192918     0.312263113
     0.105669614     0.473748474     0.208175408
     0.355669614     0.473748474     0.520438521
     0.355669614     0.362637363     0.104087704
     0.105669614     0.362637363     0.416350817
     0.105669614     0.418192918     0.000000000
     0.355669614     0.418192918     0.312263113
     0.021562114     0.473748474     0.103120729
     0.271562114     0.473748474     0.415383842
     0.021562114     0.362637363     0.311296138
     0.271562114     0.362637363     0.623559250
     0.271562114     0.418192918     0.207208434
     0.021562114     0.418192918     0.519471546
     0.437454614     0.640415140     0.208175408
     0.187454614     0.640415140     0.520438521
     0.187454614     0.529304029     0.104087704
     0.437454614     0.529304029     0.416350817
     0.437454614     0.584859585     0.000000000
     0.187454614     0.584859585     0.312263113
     0.105669614     0.640415140     0.208175408
     0.355669614     0.640415140     0.520438521
     0.355669614     0.529304029     0.104087704
     0.105669614     0.529304029     0.416350817
     0.105669614     0.584859585     0.000000000
     0.355669614     0.584859585     0.312263113
     0.021562114     0.640415140     0.103120729
     0.271562114     0.640415140     0.415383842
     0.021562114     0.529304029     0.311296138
     0.271562114     0.529304029     0.623559250
     0.271562114     0.584859585     0.207208434
     0.021562114     0.584859585     0.519471546
     0.937454614     0.473748474     0.208175408
     0.687454614     0.473748474     0.520438521
     0.687454614     0.362637363     0.104087704
     0.937454614     0.362637363     0.416350817
     0.937454614     0.418192918     0.000000000
     0.687454614     0.418192918     0.312263113
     0.605669614     0.473748474     0.208175408
     0.855669614     0.473748474     0.520438521
     0.855669614     0.362637363     0.104087704
     0.605669614     0.362637363     0.416350817
     0.605669614     0.418192918     0.000000000
     0.855669614     0.418192918     0.312263113
     0.521562114     0.473748474     0.103120729
     0.771562114     0.473748474     0.415383842
     0.521562114     0.362637363     0.311296138
     0.771562114     0.362637363     0.623559250
     0.771562114     0.418192918     0.207208434
     0.521562114     0.418192918     0.519471546
     0.937454614     0.640415140     0.208175408
     0.687454614     0.640415140     0.520438521
     0.687454614     0.529304029     0.104087704
     0.937454614     0.529304029     0.416350817
     0.937454614     0.584859585     0.000000000
     0.687454614     0.584859585     0.312263113
     0.605669614     0.640415140     0.208175408
     0.855669614     0.640415140     0.520438521
     0.855669614     0.529304029     0.104087704
     0.605669614     0.529304029     0.416350817
     0.605669614     0.584859585     0.000000000
     0.855669614     0.584859585     0.312263113
     0.521562114     0.640415140     0.103120729
     0.771562114     0.640415140     0.415383842
     0.521562114     0.529304029     0.311296138
     0.771562114     0.529304029     0.623559250
     0.771562114     0.584859585     0.207208434
     0.521562114     0.584859585     0.519471546
     0.437454614     0.807081807     0.208175408
     0.187454614     0.807081807     0.520438521
     0.187454614     0.695970696     0.104087704
     0.437454614     0.695970696     0.416350817
     0.437454614     0.751526251     0.000000000
     0.187454614     0.751526251     0.312263113
     0.105669614     0.807081807     0.208175408
     0.355669614     0.807081807     0.520438521
     0.355669614     0.695970696     0.104087704
     0.105669614     0.695970696     0.416350817
     0.105669614     0.751526251     0.000000000
     0.355669614     0.751526251     0.312263113
     0.021562114     0.807081807     0.103120729
     0.271562114     0.807081807     0.415383842
     0.021562114     0.695970696     0.311296138
     0.271562114     0.695970696     0.623559250
     0.271562114     0.751526251     0.207208434
     0.021562114     0.751526251     0.519471546
     0.437454614     0.973748474     0.208175408
     0.187454614     0.973748474     0.520438521
     0.187454614     0.862637363     0.104087704
     0.437454614     0.862637363     0.416350817
     0.437454614     0.918192918     0.000000000
     0.187454614     0.918192918     0.312263113
     0.105669614     0.973748474     0.208175408
     0.355669614     0.973748474     0.520438521
     0.355669614     0.862637363     0.104087704
     0.105669614     0.862637363     0.416350817
     0.105669614     0.918192918     0.000000000
     0.355669614     0.918192918     0.312263113
     0.021562114     0.973748474     0.103120729
     0.271562114     0.973748474     0.415383842
     0.021562114     0.862637363     0.311296138
     0.271562114     0.862637363     0.623559250
     0.271562114     0.918192918     0.207208434
     0.021562114     0.918192918     0.519471546
     0.937454614     0.807081807     0.208175408
     0.687454614     0.807081807     0.520438521
     0.687454614     0.695970696     0.104087704
     0.937454614     0.695970696     0.416350817
     0.937454614     0.751526251     0.000000000
     0.687454614     0.751526251     0.312263113
     0.605669614     0.807081807     0.208175408
     0.855669614     0.807081807     0.520438521
     0.855669614     0.695970696     0.104087704
     0.605669614     0.695970696     0.416350817
     0.605669614     0.751526251     0.000000000
     0.855669614     0.751526251     0.312263113
     0.521562114     0.807081807     0.103120729
     0.771562114     0.807081807     0.415383842
     0.521562114     0.695970696     0.311296138
     0.771562114     0.695970696     0.623559250
     0.771562114     0.751526251     0.207208434
     0.521562114     0.751526251     0.519471546
     0.937454614     0.973748474     0.208175408
     0.687454614     0.973748474     0.520438521
     0.687454614     0.862637363     0.104087704
     0.937454614     0.862637363     0.416350817
     0.937454614     0.918192918     0.000000000
     0.687454614     0.918192918     0.312263113
     0.605669614     0.973748474     0.208175408
     0.855669614     0.973748474     0.520438521
     0.855669614     0.862637363     0.104087704
     0.605669614     0.862637363     0.416350817
     0.605669614     0.918192918     0.000000000
     0.855669614     0.918192918     0.312263113
     0.521562114     0.973748474     0.103120729
     0.771562114     0.973748474     0.415383842
     0.521562114     0.862637363     0.311296138
     0.771562114     0.862637363     0.623559250
     0.771562114     0.918192918     0.207208434
     0.521562114     0.918192918     0.519471546
