POSCAR made from 100-1.xsd file
1.0
        0.0000000000        9.5784100000        0.0000000000
        0.0000000000       -0.0000000000        6.2785600000
       24.9551922304        0.0000000000       -0.0000000000
   Ni    S
   36   36
Direct
     0.563015813     0.245104508     0.266880166
     0.063015813     0.245104508     0.599281788
     0.063015813     0.411771175     0.156079625
     0.563015813     0.411771175     0.488481248
     0.563015813     0.078437841     0.045279084
     0.063015813     0.078437841     0.377680707
     0.298809813     0.245104508     0.266880166
     0.798809813     0.245104508     0.599281788
     0.798809813     0.411771175     0.156079625
     0.298809813     0.411771175     0.488481248
     0.298809813     0.078437841     0.045279084
     0.798809813     0.078437841     0.377680707
     0.930912813     0.245104508     0.022301046
     0.430912813     0.245104508     0.354702669
     0.930912813     0.411771175     0.243902128
     0.430912813     0.411771175     0.576303751
     0.430912813     0.078437841     0.133101587
     0.930912813     0.078437841     0.465503210
     0.563015813     0.745104508     0.266880166
     0.063015813     0.745104508     0.599281788
     0.063015813     0.911771175     0.156079625
     0.563015813     0.911771175     0.488481248
     0.563015813     0.578437841     0.045279084
     0.063015813     0.578437841     0.377680707
     0.298809813     0.745104508     0.266880166
     0.798809813     0.745104508     0.599281788
     0.798809813     0.911771175     0.156079625
     0.298809813     0.911771175     0.488481248
     0.298809813     0.578437841     0.045279084
     0.798809813     0.578437841     0.377680707
     0.930912813     0.745104508     0.022301046
     0.430912813     0.745104508     0.354702669
     0.930912813     0.911771175     0.243902128
     0.430912813     0.911771175     0.576303751
     0.430912813     0.578437841     0.133101587
     0.930912813     0.578437841     0.465503210
     0.762697813     0.007252175     0.001029337
     0.262697813     0.007252175     0.333430960
     0.762697813     0.173918841     0.222630419
     0.262697813     0.173918841     0.555032041
     0.262697813     0.340585508     0.111829878
     0.762697813     0.340585508     0.444231500
     0.099127813     0.007252175     0.001029337
     0.599127813     0.007252175     0.333430960
     0.099127813     0.173918841     0.222630419
     0.599127813     0.173918841     0.555032041
     0.599127813     0.340585508     0.111829878
     0.099127813     0.340585508     0.444231500
     0.430912813     0.007252175     0.221601082
     0.930912813     0.007252175     0.554002704
     0.930912813     0.173918841     0.110800541
     0.430912813     0.173918841     0.443202163
     0.430912813     0.340585508    -0.000000000
     0.930912813     0.340585508     0.332401623
     0.762697813     0.507252175     0.001029337
     0.262697813     0.507252175     0.333430960
     0.762697813     0.673918841     0.222630419
     0.262697813     0.673918841     0.555032041
     0.262697813     0.840585508     0.111829878
     0.762697813     0.840585508     0.444231500
     0.099127813     0.507252175     0.001029337
     0.599127813     0.507252175     0.333430960
     0.099127813     0.673918841     0.222630419
     0.599127813     0.673918841     0.555032041
     0.599127813     0.840585508     0.111829878
     0.099127813     0.840585508     0.444231500
     0.430912813     0.507252175     0.221601082
     0.930912813     0.507252175     0.554002704
     0.930912813     0.673918841     0.110800541
     0.430912813     0.673918841     0.443202163
     0.430912813     0.840585508     0.000000000
     0.930912813     0.840585508     0.332401623
