VASP POSCAR made from 110-1.xsd file
1.0
        0.0000000000       -0.0000000000       12.5571200000
        8.2951463879      -14.3676150000       -0.0000000000
       19.7461365250       11.4004372381        0.0000000000
   Ni    S
  108  108
Direct
     0.079548877     0.029774220     0.070665370
     0.079548877     0.529774220     0.280710165
     0.079548877     0.029774220     0.490754960
     0.162882211     0.696440887     0.070665370
     0.162882211     0.196440887     0.280710165
     0.162882211     0.696440887     0.490754960
     0.496215544     0.363107553     0.070665370
     0.496215544     0.863107553     0.280710165
     0.496215544     0.363107553     0.490754960
     0.079548877     0.161877220     0.015170275
     0.079548877     0.661877220     0.225215070
     0.079548877     0.161877220     0.435259865
     0.162882211     0.828543887     0.015170275
     0.162882211     0.328543887     0.225215070
     0.162882211     0.828543887     0.435259865
     0.496215544     0.495210553     0.015170275
     0.496215544     0.995210553     0.225215070
     0.496215544     0.495210553     0.435259865
     0.079548877     0.161877220     0.126160465
     0.079548877     0.661877220     0.336205260
     0.079548877     0.161877220     0.546250055
     0.162882211     0.828543887     0.126160465
     0.162882211     0.328543887     0.336205260
     0.162882211     0.828543887     0.546250055
     0.496215544     0.495210553     0.126160465
     0.496215544     0.995210553     0.336205260
     0.496215544     0.495210553     0.546250055
     0.329548877     0.029774220     0.070665370
     0.329548877     0.529774220     0.280710165
     0.329548877     0.029774220     0.490754960
     0.412882211     0.696440887     0.070665370
     0.412882211     0.196440887     0.280710165
     0.412882211     0.696440887     0.490754960
     0.246215544     0.363107553     0.070665370
     0.246215544     0.863107553     0.280710165
     0.246215544     0.363107553     0.490754960
     0.329548877     0.161877220     0.015170275
     0.329548877     0.661877220     0.225215070
     0.329548877     0.161877220     0.435259865
     0.412882211     0.828543887     0.015170275
     0.412882211     0.328543887     0.225215070
     0.412882211     0.828543887     0.435259865
     0.246215544     0.495210553     0.015170275
     0.246215544     0.995210553     0.225215070
     0.246215544     0.495210553     0.435259865
     0.329548877     0.161877220     0.126160465
     0.329548877     0.661877220     0.336205260
     0.329548877     0.161877220     0.546250055
     0.412882211     0.828543887     0.126160465
     0.412882211     0.328543887     0.336205260
     0.412882211     0.828543887     0.546250055
     0.246215544     0.495210553     0.126160465
     0.246215544     0.995210553     0.336205260
     0.246215544     0.495210553     0.546250055
     0.579548877     0.029774220     0.070665370
     0.579548877     0.529774220     0.280710165
     0.579548877     0.029774220     0.490754960
     0.662882211     0.696440887     0.070665370
     0.662882211     0.196440887     0.280710165
     0.662882211     0.696440887     0.490754960
     0.996215544     0.363107553     0.070665370
     0.996215544     0.863107553     0.280710165
     0.996215544     0.363107553     0.490754960
     0.579548877     0.161877220     0.015170275
     0.579548877     0.661877220     0.225215070
     0.579548877     0.161877220     0.435259865
     0.662882211     0.828543887     0.015170275
     0.662882211     0.328543887     0.225215070
     0.662882211     0.828543887     0.435259865
     0.996215544     0.495210553     0.015170275
     0.996215544     0.995210553     0.225215070
     0.996215544     0.495210553     0.435259865
     0.579548877     0.161877220     0.126160465
     0.579548877     0.661877220     0.336205260
     0.579548877     0.161877220     0.546250055
     0.662882211     0.828543887     0.126160465
     0.662882211     0.328543887     0.336205260
     0.662882211     0.828543887     0.546250055
     0.996215544     0.495210553     0.126160465
     0.996215544     0.995210553     0.336205260
     0.996215544     0.495210553     0.546250055
     0.829548877     0.029774220     0.070665370
     0.829548877     0.529774220     0.280710165
     0.829548877     0.029774220     0.490754960
     0.912882211     0.696440887     0.070665370
     0.912882211     0.196440887     0.280710165
     0.912882211     0.696440887     0.490754960
     0.746215544     0.363107553     0.070665370
     0.746215544     0.863107553     0.280710165
     0.746215544     0.363107553     0.490754960
     0.829548877     0.161877220     0.015170275
     0.829548877     0.661877220     0.225215070
     0.829548877     0.161877220     0.435259865
     0.912882211     0.828543887     0.015170275
     0.912882211     0.328543887     0.225215070
     0.912882211     0.828543887     0.435259865
     0.746215544     0.495210553     0.015170275
     0.746215544     0.995210553     0.225215070
     0.746215544     0.495210553     0.435259865
     0.829548877     0.161877220     0.126160465
     0.829548877     0.661877220     0.336205260
     0.829548877     0.161877220     0.546250055
     0.912882211     0.828543887     0.126160465
     0.912882211     0.328543887     0.336205260
     0.912882211     0.828543887     0.546250055
     0.746215544     0.495210553     0.126160465
     0.746215544     0.995210553     0.336205260
     0.746215544     0.495210553     0.546250055
     0.210622711     0.229986220     0.070665370
     0.210622711     0.729986220     0.280710165
     0.210622711     0.229986220     0.490754960
     0.043956044     0.896652887     0.070665370
     0.043956044     0.396652887     0.280710165
     0.043956044     0.896652887     0.490754960
     0.127289377     0.563319553     0.070665370
     0.127289377     0.063319553     0.280710165
     0.127289377     0.563319553     0.490754960
     0.210622711     0.061771220     0.141330741
     0.210622711     0.561771220     0.351375535
     0.210622711     0.061771220     0.561420330
     0.043956044     0.728437887     0.141330741
     0.043956044     0.228437887     0.351375535
     0.043956044     0.728437887     0.561420330
     0.127289377     0.395104553     0.141330741
     0.127289377     0.895104553     0.351375535
     0.127289377     0.395104553     0.561420330
     0.210622711     0.061771220     0.000000000
     0.210622711     0.561771220     0.210044795
     0.210622711     0.061771220     0.420089590
     0.043956044     0.728437887     0.000000000
     0.043956044     0.228437887     0.210044795
     0.043956044     0.728437887     0.420089590
     0.127289377     0.395104553     0.000000000
     0.127289377     0.895104553     0.210044795
     0.127289377     0.395104553     0.420089590
     0.460622711     0.229986220     0.070665370
     0.460622711     0.729986220     0.280710165
     0.460622711     0.229986220     0.490754960
     0.293956044     0.896652887     0.070665370
     0.293956044     0.396652887     0.280710165
     0.293956044     0.896652887     0.490754960
     0.377289377     0.563319553     0.070665370
     0.377289377     0.063319553     0.280710165
     0.377289377     0.563319553     0.490754960
     0.460622711     0.061771220     0.141330741
     0.460622711     0.561771220     0.351375535
     0.460622711     0.061771220     0.561420330
     0.293956044     0.728437887     0.141330741
     0.293956044     0.228437887     0.351375535
     0.293956044     0.728437887     0.561420330
     0.377289377     0.395104553     0.141330741
     0.377289377     0.895104553     0.351375535
     0.377289377     0.395104553     0.561420330
     0.460622711     0.061771220     0.000000000
     0.460622711     0.561771220     0.210044795
     0.460622711     0.061771220     0.420089590
     0.293956044     0.728437887     0.000000000
     0.293956044     0.228437887     0.210044795
     0.293956044     0.728437887     0.420089590
     0.377289377     0.395104553     0.000000000
     0.377289377     0.895104553     0.210044795
     0.377289377     0.395104553     0.420089590
     0.710622711     0.229986220     0.070665370
     0.710622711     0.729986220     0.280710165
     0.710622711     0.229986220     0.490754960
     0.543956044     0.896652887     0.070665370
     0.543956044     0.396652887     0.280710165
     0.543956044     0.896652887     0.490754960
     0.627289377     0.563319553     0.070665370
     0.627289377     0.063319553     0.280710165
     0.627289377     0.563319553     0.490754960
     0.710622711     0.061771220     0.141330741
     0.710622711     0.561771220     0.351375535
     0.710622711     0.061771220     0.561420330
     0.543956044     0.728437887     0.141330741
     0.543956044     0.228437887     0.351375535
     0.543956044     0.728437887     0.561420330
     0.627289377     0.395104553     0.141330741
     0.627289377     0.895104553     0.351375535
     0.627289377     0.395104553     0.561420330
     0.710622711     0.061771220     0.000000000
     0.710622711     0.561771220     0.210044795
     0.710622711     0.061771220     0.420089590
     0.543956044     0.728437887     0.000000000
     0.543956044     0.228437887     0.210044795
     0.543956044     0.728437887     0.420089590
     0.627289377     0.395104553     0.000000000
     0.627289377     0.895104553     0.210044795
     0.627289377     0.395104553     0.420089590
     0.960622711     0.229986220     0.070665370
     0.960622711     0.729986220     0.280710165
     0.960622711     0.229986220     0.490754960
     0.793956044     0.896652887     0.070665370
     0.793956044     0.396652887     0.280710165
     0.793956044     0.896652887     0.490754960
     0.877289377     0.563319553     0.070665370
     0.877289377     0.063319553     0.280710165
     0.877289377     0.563319553     0.490754960
     0.960622711     0.061771220     0.141330741
     0.960622711     0.561771220     0.351375535
     0.960622711     0.061771220     0.561420330
     0.793956044     0.728437887     0.141330741
     0.793956044     0.228437887     0.351375535
     0.793956044     0.728437887     0.561420330
     0.877289377     0.395104553     0.141330741
     0.877289377     0.895104553     0.351375535
     0.877289377     0.395104553     0.561420330
     0.960622711     0.061771220     0.000000000
     0.960622711     0.561771220     0.210044795
     0.960622711     0.061771220     0.420089590
     0.793956044     0.728437887     0.000000000
     0.793956044     0.228437887     0.210044795
     0.793956044     0.728437887     0.420089590
     0.877289377     0.395104553    -0.000000000
     0.877289377     0.895104553     0.210044795
     0.877289377     0.395104553     0.420089590
