POSCAR made from 100-3.xsd file
1.0
        0.0000000000        9.5784100000        0.0000000000
        0.0000000000       -0.0000000000        6.2785600000
       26.0594531778        0.0000000000       -0.0000000000
   Ni    S
   36   36
Direct
     0.063015811     0.245104508     0.022004351
     0.563015811     0.245104508     0.340320561
     0.063015811     0.411771175     0.234215158
     0.563015811     0.411771175     0.552531369
     0.563015811     0.078437841     0.128109754
     0.063015811     0.078437841     0.446425965
     0.798809811     0.245104508     0.022004351
     0.298809811     0.245104508     0.340320561
     0.798809811     0.411771175     0.234215158
     0.298809811     0.411771175     0.552531369
     0.298809811     0.078437841     0.128109754
     0.798809811     0.078437841     0.446425965
     0.930912811     0.245104508     0.106105404
     0.430912811     0.245104508     0.424421614
     0.430912811     0.411771175     0.000000000
     0.930912811     0.411771175     0.318316211
     0.430912811     0.078437841     0.212210807
     0.930912811     0.078437841     0.530527018
     0.063015811     0.745104508     0.022004351
     0.563015811     0.745104508     0.340320561
     0.063015811     0.911771175     0.234215158
     0.563015811     0.911771175     0.552531369
     0.563015811     0.578437841     0.128109754
     0.063015811     0.578437841     0.446425965
     0.798809811     0.745104508     0.022004351
     0.298809811     0.745104508     0.340320561
     0.798809811     0.911771175     0.234215158
     0.298809811     0.911771175     0.552531369
     0.298809811     0.578437841     0.128109754
     0.798809811     0.578437841     0.446425965
     0.930912811     0.745104508     0.106105404
     0.430912811     0.745104508     0.424421614
     0.430912811     0.911771175     0.000000000
     0.930912811     0.911771175     0.318316211
     0.430912811     0.578437841     0.212210807
     0.930912811     0.578437841     0.530527018
     0.762697811     0.007252175     0.085735076
     0.262697811     0.007252175     0.404051287
     0.762697811     0.173918841     0.297945883
     0.262697811     0.173918841     0.616262094
     0.262697811     0.340585508     0.191840480
     0.762697811     0.340585508     0.510156690
     0.099127811     0.007252175     0.085735076
     0.599127811     0.007252175     0.404051287
     0.099127811     0.173918841     0.297945883
     0.599127811     0.173918841     0.616262094
     0.599127811     0.340585508     0.191840480
     0.099127811     0.340585508     0.510156690
     0.430912811     0.007252175     0.296960164
     0.930912811     0.007252175     0.615276375
     0.930912811     0.173918841     0.190854760
     0.430912811     0.173918841     0.509170971
     0.430912811     0.340585508     0.084749357
     0.930912811     0.340585508     0.403065567
     0.762697811     0.507252175     0.085735076
     0.262697811     0.507252175     0.404051287
     0.762697811     0.673918841     0.297945883
     0.262697811     0.673918841     0.616262094
     0.262697811     0.840585508     0.191840480
     0.762697811     0.840585508     0.510156690
     0.099127811     0.507252175     0.085735076
     0.599127811     0.507252175     0.404051287
     0.099127811     0.673918841     0.297945883
     0.599127811     0.673918841     0.616262094
     0.599127811     0.840585508     0.191840480
     0.099127811     0.840585508     0.510156690
     0.430912811     0.507252175     0.296960164
     0.930912811     0.507252175     0.615276375
     0.930912811     0.673918841     0.190854760
     0.430912811     0.673918841     0.509170971
     0.430912811     0.840585508     0.084749357
     0.930912811     0.840585508     0.403065567
