VASP POSCAR made from 100-1.xsd file
1.0
        0.0000000000       19.1568200000        0.0000000000
        0.0000000000       -0.0000000000       18.8356800000
       24.9551922304        0.0000000000       -0.0000000000
   Ni    S
  216  216
Direct
     0.087613622     0.053032585     0.045279084
     0.337613622     0.053032585     0.377680707
     0.087613622     0.108588140     0.266880166
     0.337613622     0.108588140     0.599281788
     0.337613622     0.330810363     0.156079625
     0.087613622     0.330810363     0.488481248
     0.455510622     0.053032585     0.045279084
     0.205510622     0.053032585     0.377680707
     0.455510622     0.108588140     0.266880166
     0.205510622     0.108588140     0.599281788
     0.205510622     0.330810363     0.156079625
     0.455510622     0.330810363     0.488481248
     0.021562122     0.053032585     0.133101587
     0.271562122     0.053032585     0.465503210
     0.271562122     0.108588140     0.022301046
     0.021562122     0.108588140     0.354702669
     0.271562122     0.330810363     0.243902128
     0.021562122     0.330810363     0.576303751
     0.087613622     0.219699251     0.045279084
     0.337613622     0.219699251     0.377680707
     0.087613622     0.275254807     0.266880166
     0.337613622     0.275254807     0.599281788
     0.337613622     0.164143696     0.156079625
     0.087613622     0.164143696     0.488481248
     0.455510622     0.219699251     0.045279084
     0.205510622     0.219699251     0.377680707
     0.455510622     0.275254807     0.266880166
     0.205510622     0.275254807     0.599281788
     0.205510622     0.164143696     0.156079625
     0.455510622     0.164143696     0.488481248
     0.021562122     0.219699251     0.133101587
     0.271562122     0.219699251     0.465503210
     0.271562122     0.275254807     0.022301046
     0.021562122     0.275254807     0.354702669
     0.271562122     0.164143696     0.243902128
     0.021562122     0.164143696     0.576303751
     0.587613622     0.053032585     0.045279084
     0.837613622     0.053032585     0.377680707
     0.587613622     0.108588140     0.266880166
     0.837613622     0.108588140     0.599281788
     0.837613622     0.330810363     0.156079625
     0.587613622     0.330810363     0.488481248
     0.955510622     0.053032585     0.045279084
     0.705510622     0.053032585     0.377680707
     0.955510622     0.108588140     0.266880166
     0.705510622     0.108588140     0.599281788
     0.705510622     0.330810363     0.156079625
     0.955510622     0.330810363     0.488481248
     0.521562122     0.053032585     0.133101587
     0.771562122     0.053032585     0.465503210
     0.771562122     0.108588140     0.022301046
     0.521562122     0.108588140     0.354702669
     0.771562122     0.330810363     0.243902128
     0.521562122     0.330810363     0.576303751
     0.587613622     0.219699251     0.045279084
     0.837613622     0.219699251     0.377680707
     0.587613622     0.275254807     0.266880166
     0.837613622     0.275254807     0.599281788
     0.837613622     0.164143696     0.156079625
     0.587613622     0.164143696     0.488481248
     0.955510622     0.219699251     0.045279084
     0.705510622     0.219699251     0.377680707
     0.955510622     0.275254807     0.266880166
     0.705510622     0.275254807     0.599281788
     0.705510622     0.164143696     0.156079625
     0.955510622     0.164143696     0.488481248
     0.521562122     0.219699251     0.133101587
     0.771562122     0.219699251     0.465503210
     0.771562122     0.275254807     0.022301046
     0.521562122     0.275254807     0.354702669
     0.771562122     0.164143696     0.243902128
     0.521562122     0.164143696     0.576303751
     0.087613622     0.386365918     0.045279084
     0.337613622     0.386365918     0.377680707
     0.087613622     0.441921474     0.266880166
     0.337613622     0.441921474     0.599281788
     0.337613622     0.664143696     0.156079625
     0.087613622     0.664143696     0.488481248
     0.455510622     0.386365918     0.045279084
     0.205510622     0.386365918     0.377680707
     0.455510622     0.441921474     0.266880166
     0.205510622     0.441921474     0.599281788
     0.205510622     0.664143696     0.156079625
     0.455510622     0.664143696     0.488481248
     0.021562122     0.386365918     0.133101587
     0.271562122     0.386365918     0.465503210
     0.271562122     0.441921474     0.022301046
     0.021562122     0.441921474     0.354702669
     0.271562122     0.664143696     0.243902128
     0.021562122     0.664143696     0.576303751
     0.087613622     0.553032585     0.045279084
     0.337613622     0.553032585     0.377680707
     0.087613622     0.608588140     0.266880166
     0.337613622     0.608588140     0.599281788
     0.337613622     0.497477029     0.156079625
     0.087613622     0.497477029     0.488481248
     0.455510622     0.553032585     0.045279084
     0.205510622     0.553032585     0.377680707
     0.455510622     0.608588140     0.266880166
     0.205510622     0.608588140     0.599281788
     0.205510622     0.497477029     0.156079625
     0.455510622     0.497477029     0.488481248
     0.021562122     0.553032585     0.133101587
     0.271562122     0.553032585     0.465503210
     0.271562122     0.608588140     0.022301046
     0.021562122     0.608588140     0.354702669
     0.271562122     0.497477029     0.243902128
     0.021562122     0.497477029     0.576303751
     0.587613622     0.386365918     0.045279084
     0.837613622     0.386365918     0.377680707
     0.587613622     0.441921474     0.266880166
     0.837613622     0.441921474     0.599281788
     0.837613622     0.664143696     0.156079625
     0.587613622     0.664143696     0.488481248
     0.955510622     0.386365918     0.045279084
     0.705510622     0.386365918     0.377680707
     0.955510622     0.441921474     0.266880166
     0.705510622     0.441921474     0.599281788
     0.705510622     0.664143696     0.156079625
     0.955510622     0.664143696     0.488481248
     0.521562122     0.386365918     0.133101587
     0.771562122     0.386365918     0.465503210
     0.771562122     0.441921474     0.022301046
     0.521562122     0.441921474     0.354702669
     0.771562122     0.664143696     0.243902128
     0.521562122     0.664143696     0.576303751
     0.587613622     0.553032585     0.045279084
     0.837613622     0.553032585     0.377680707
     0.587613622     0.608588140     0.266880166
     0.837613622     0.608588140     0.599281788
     0.837613622     0.497477029     0.156079625
     0.587613622     0.497477029     0.488481248
     0.955510622     0.553032585     0.045279084
     0.705510622     0.553032585     0.377680707
     0.955510622     0.608588140     0.266880166
     0.705510622     0.608588140     0.599281788
     0.705510622     0.497477029     0.156079625
     0.955510622     0.497477029     0.488481248
     0.521562122     0.553032585     0.133101587
     0.771562122     0.553032585     0.465503210
     0.771562122     0.608588140     0.022301046
     0.521562122     0.608588140     0.354702669
     0.771562122     0.497477029     0.243902128
     0.521562122     0.497477029     0.576303751
     0.087613622     0.719699251     0.045279084
     0.337613622     0.719699251     0.377680707
     0.087613622     0.775254807     0.266880166
     0.337613622     0.775254807     0.599281788
     0.337613622     0.997477029     0.156079625
     0.087613622     0.997477029     0.488481248
     0.455510622     0.719699251     0.045279084
     0.205510622     0.719699251     0.377680707
     0.455510622     0.775254807     0.266880166
     0.205510622     0.775254807     0.599281788
     0.205510622     0.997477029     0.156079625
     0.455510622     0.997477029     0.488481248
     0.021562122     0.719699251     0.133101587
     0.271562122     0.719699251     0.465503210
     0.271562122     0.775254807     0.022301046
     0.021562122     0.775254807     0.354702669
     0.271562122     0.997477029     0.243902128
     0.021562122     0.997477029     0.576303751
     0.087613622     0.886365918     0.045279084
     0.337613622     0.886365918     0.377680707
     0.087613622     0.941921474     0.266880166
     0.337613622     0.941921474     0.599281788
     0.337613622     0.830810363     0.156079625
     0.087613622     0.830810363     0.488481248
     0.455510622     0.886365918     0.045279084
     0.205510622     0.886365918     0.377680707
     0.455510622     0.941921474     0.266880166
     0.205510622     0.941921474     0.599281788
     0.205510622     0.830810363     0.156079625
     0.455510622     0.830810363     0.488481248
     0.021562122     0.886365918     0.133101587
     0.271562122     0.886365918     0.465503210
     0.271562122     0.941921474     0.022301046
     0.021562122     0.941921474     0.354702669
     0.271562122     0.830810363     0.243902128
     0.021562122     0.830810363     0.576303751
     0.587613622     0.719699251     0.045279084
     0.837613622     0.719699251     0.377680707
     0.587613622     0.775254807     0.266880166
     0.837613622     0.775254807     0.599281788
     0.837613622     0.997477029     0.156079625
     0.587613622     0.997477029     0.488481248
     0.955510622     0.719699251     0.045279084
     0.705510622     0.719699251     0.377680707
     0.955510622     0.775254807     0.266880166
     0.705510622     0.775254807     0.599281788
     0.705510622     0.997477029     0.156079625
     0.955510622     0.997477029     0.488481248
     0.521562122     0.719699251     0.133101587
     0.771562122     0.719699251     0.465503210
     0.771562122     0.775254807     0.022301046
     0.521562122     0.775254807     0.354702669
     0.771562122     0.997477029     0.243902128
     0.521562122     0.997477029     0.576303751
     0.587613622     0.886365918     0.045279084
     0.837613622     0.886365918     0.377680707
     0.587613622     0.941921474     0.266880166
     0.837613622     0.941921474     0.599281788
     0.837613622     0.830810363     0.156079625
     0.587613622     0.830810363     0.488481248
     0.955510622     0.886365918     0.045279084
     0.705510622     0.886365918     0.377680707
     0.955510622     0.941921474     0.266880166
     0.705510622     0.941921474     0.599281788
     0.705510622     0.830810363     0.156079625
     0.955510622     0.830810363     0.488481248
     0.521562122     0.886365918     0.133101587
     0.771562122     0.886365918     0.465503210
     0.771562122     0.941921474     0.022301046
     0.521562122     0.941921474     0.354702669
     0.771562122     0.830810363     0.243902128
     0.521562122     0.830810363     0.576303751
     0.437454622     0.140415140     0.111829878
     0.187454622     0.140415140     0.444231500
     0.187454622     0.029304029     0.001029337
     0.437454622     0.029304029     0.333430960
     0.187454622     0.084859585     0.222630419
     0.437454622     0.084859585     0.555032041
     0.105669622     0.140415140     0.111829878
     0.355669622     0.140415140     0.444231500
     0.355669622     0.029304029     0.001029337
     0.105669622     0.029304029     0.333430960
     0.355669622     0.084859585     0.222630419
     0.105669622     0.084859585     0.555032041
     0.021562122     0.140415140     0.000000000
     0.271562122     0.140415140     0.332401623
     0.021562122     0.029304029     0.221601082
     0.271562122     0.029304029     0.554002704
     0.271562122     0.084859585     0.110800541
     0.021562122     0.084859585     0.443202163
     0.437454622     0.307081807     0.111829878
     0.187454622     0.307081807     0.444231500
     0.187454622     0.195970696     0.001029337
     0.437454622     0.195970696     0.333430960
     0.187454622     0.251526251     0.222630419
     0.437454622     0.251526251     0.555032041
     0.105669622     0.307081807     0.111829878
     0.355669622     0.307081807     0.444231500
     0.355669622     0.195970696     0.001029337
     0.105669622     0.195970696     0.333430960
     0.355669622     0.251526251     0.222630419
     0.105669622     0.251526251     0.555032041
     0.021562122     0.307081807     0.000000000
     0.271562122     0.307081807     0.332401623
     0.021562122     0.195970696     0.221601082
     0.271562122     0.195970696     0.554002704
     0.271562122     0.251526251     0.110800541
     0.021562122     0.251526251     0.443202163
     0.937454622     0.140415140     0.111829878
     0.687454622     0.140415140     0.444231500
     0.687454622     0.029304029     0.001029337
     0.937454622     0.029304029     0.333430960
     0.687454622     0.084859585     0.222630419
     0.937454622     0.084859585     0.555032041
     0.605669622     0.140415140     0.111829878
     0.855669622     0.140415140     0.444231500
     0.855669622     0.029304029     0.001029337
     0.605669622     0.029304029     0.333430960
     0.855669622     0.084859585     0.222630419
     0.605669622     0.084859585     0.555032041
     0.521562122     0.140415140     0.000000000
     0.771562122     0.140415140     0.332401623
     0.521562122     0.029304029     0.221601082
     0.771562122     0.029304029     0.554002704
     0.771562122     0.084859585     0.110800541
     0.521562122     0.084859585     0.443202163
     0.937454622     0.307081807     0.111829878
     0.687454622     0.307081807     0.444231500
     0.687454622     0.195970696     0.001029337
     0.937454622     0.195970696     0.333430960
     0.687454622     0.251526251     0.222630419
     0.937454622     0.251526251     0.555032041
     0.605669622     0.307081807     0.111829878
     0.855669622     0.307081807     0.444231500
     0.855669622     0.195970696     0.001029337
     0.605669622     0.195970696     0.333430960
     0.855669622     0.251526251     0.222630419
     0.605669622     0.251526251     0.555032041
     0.521562122     0.307081807     0.000000000
     0.771562122     0.307081807     0.332401623
     0.521562122     0.195970696     0.221601082
     0.771562122     0.195970696     0.554002704
     0.771562122     0.251526251     0.110800541
     0.521562122     0.251526251     0.443202163
     0.437454622     0.473748474     0.111829878
     0.187454622     0.473748474     0.444231500
     0.187454622     0.362637363     0.001029337
     0.437454622     0.362637363     0.333430960
     0.187454622     0.418192918     0.222630419
     0.437454622     0.418192918     0.555032041
     0.105669622     0.473748474     0.111829878
     0.355669622     0.473748474     0.444231500
     0.355669622     0.362637363     0.001029337
     0.105669622     0.362637363     0.333430960
     0.355669622     0.418192918     0.222630419
     0.105669622     0.418192918     0.555032041
     0.021562122     0.473748474    -0.000000000
     0.271562122     0.473748474     0.332401623
     0.021562122     0.362637363     0.221601082
     0.271562122     0.362637363     0.554002704
     0.271562122     0.418192918     0.110800541
     0.021562122     0.418192918     0.443202163
     0.437454622     0.640415140     0.111829878
     0.187454622     0.640415140     0.444231500
     0.187454622     0.529304029     0.001029337
     0.437454622     0.529304029     0.333430960
     0.187454622     0.584859585     0.222630419
     0.437454622     0.584859585     0.555032041
     0.105669622     0.640415140     0.111829878
     0.355669622     0.640415140     0.444231500
     0.355669622     0.529304029     0.001029337
     0.105669622     0.529304029     0.333430960
     0.355669622     0.584859585     0.222630419
     0.105669622     0.584859585     0.555032041
     0.021562122     0.640415140     0.000000000
     0.271562122     0.640415140     0.332401623
     0.021562122     0.529304029     0.221601082
     0.271562122     0.529304029     0.554002704
     0.271562122     0.584859585     0.110800541
     0.021562122     0.584859585     0.443202163
     0.937454622     0.473748474     0.111829878
     0.687454622     0.473748474     0.444231500
     0.687454622     0.362637363     0.001029337
     0.937454622     0.362637363     0.333430960
     0.687454622     0.418192918     0.222630419
     0.937454622     0.418192918     0.555032041
     0.605669622     0.473748474     0.111829878
     0.855669622     0.473748474     0.444231500
     0.855669622     0.362637363     0.001029337
     0.605669622     0.362637363     0.333430960
     0.855669622     0.418192918     0.222630419
     0.605669622     0.418192918     0.555032041
     0.521562122     0.473748474    -0.000000000
     0.771562122     0.473748474     0.332401623
     0.521562122     0.362637363     0.221601082
     0.771562122     0.362637363     0.554002704
     0.771562122     0.418192918     0.110800541
     0.521562122     0.418192918     0.443202163
     0.937454622     0.640415140     0.111829878
     0.687454622     0.640415140     0.444231500
     0.687454622     0.529304029     0.001029337
     0.937454622     0.529304029     0.333430960
     0.687454622     0.584859585     0.222630419
     0.937454622     0.584859585     0.555032041
     0.605669622     0.640415140     0.111829878
     0.855669622     0.640415140     0.444231500
     0.855669622     0.529304029     0.001029337
     0.605669622     0.529304029     0.333430960
     0.855669622     0.584859585     0.222630419
     0.605669622     0.584859585     0.555032041
     0.521562122     0.640415140     0.000000000
     0.771562122     0.640415140     0.332401623
     0.521562122     0.529304029     0.221601082
     0.771562122     0.529304029     0.554002704
     0.771562122     0.584859585     0.110800541
     0.521562122     0.584859585     0.443202163
     0.437454622     0.807081807     0.111829878
     0.187454622     0.807081807     0.444231500
     0.187454622     0.695970696     0.001029337
     0.437454622     0.695970696     0.333430960
     0.187454622     0.751526251     0.222630419
     0.437454622     0.751526251     0.555032041
     0.105669622     0.807081807     0.111829878
     0.355669622     0.807081807     0.444231500
     0.355669622     0.695970696     0.001029337
     0.105669622     0.695970696     0.333430960
     0.355669622     0.751526251     0.222630419
     0.105669622     0.751526251     0.555032041
     0.021562122     0.807081807    -0.000000000
     0.271562122     0.807081807     0.332401623
     0.021562122     0.695970696     0.221601082
     0.271562122     0.695970696     0.554002704
     0.271562122     0.751526251     0.110800541
     0.021562122     0.751526251     0.443202163
     0.437454622     0.973748474     0.111829878
     0.187454622     0.973748474     0.444231500
     0.187454622     0.862637363     0.001029337
     0.437454622     0.862637363     0.333430960
     0.187454622     0.918192918     0.222630419
     0.437454622     0.918192918     0.555032041
     0.105669622     0.973748474     0.111829878
     0.355669622     0.973748474     0.444231500
     0.355669622     0.862637363     0.001029337
     0.105669622     0.862637363     0.333430960
     0.355669622     0.918192918     0.222630419
     0.105669622     0.918192918     0.555032041
     0.021562122     0.973748474     0.000000000
     0.271562122     0.973748474     0.332401623
     0.021562122     0.862637363     0.221601082
     0.271562122     0.862637363     0.554002704
     0.271562122     0.918192918     0.110800541
     0.021562122     0.918192918     0.443202163
     0.937454622     0.807081807     0.111829878
     0.687454622     0.807081807     0.444231500
     0.687454622     0.695970696     0.001029337
     0.937454622     0.695970696     0.333430960
     0.687454622     0.751526251     0.222630419
     0.937454622     0.751526251     0.555032041
     0.605669622     0.807081807     0.111829878
     0.855669622     0.807081807     0.444231500
     0.855669622     0.695970696     0.001029337
     0.605669622     0.695970696     0.333430960
     0.855669622     0.751526251     0.222630419
     0.605669622     0.751526251     0.555032041
     0.521562122     0.807081807    -0.000000000
     0.771562122     0.807081807     0.332401623
     0.521562122     0.695970696     0.221601082
     0.771562122     0.695970696     0.554002704
     0.771562122     0.751526251     0.110800541
     0.521562122     0.751526251     0.443202163
     0.937454622     0.973748474     0.111829878
     0.687454622     0.973748474     0.444231500
     0.687454622     0.862637363     0.001029337
     0.937454622     0.862637363     0.333430960
     0.687454622     0.918192918     0.222630419
     0.937454622     0.918192918     0.555032041
     0.605669622     0.973748474     0.111829878
     0.855669622     0.973748474     0.444231500
     0.855669622     0.862637363     0.001029337
     0.605669622     0.862637363     0.333430960
     0.855669622     0.918192918     0.222630419
     0.605669622     0.918192918     0.555032041
     0.521562122     0.973748474     0.000000000
     0.771562122     0.973748474     0.332401623
     0.521562122     0.862637363     0.221601082
     0.771562122     0.862637363     0.554002704
     0.771562122     0.918192918     0.110800541
     0.521562122     0.918192918     0.443202163
