POSCAR made from -111-2.xsd file
1.0
        8.2951463879        4.7892050000       -0.0000000000
       -0.0000000000        9.5784100000       -3.1392800000
       -3.6733620335        6.3624496766       19.4127798752
   Ni    S
   36   36
Direct
     0.805533976     0.474820260     0.076341873
     0.868173889     0.349540434     0.217794646
     0.930813802     0.224260609     0.359247419
     0.993453715     0.098980783     0.500700193
     0.472200643     0.141486927     0.076341873
     0.534840556     0.016207101     0.217794646
     0.597480469     0.890927275     0.359247419
     0.660120382     0.765647450     0.500700193
     0.138867310     0.808153593     0.076341873
     0.201507223     0.682873768     0.217794646
     0.264147135     0.557593942     0.359247419
     0.326787048     0.432314116     0.500700193
     0.788984136     0.243713942     0.038969202
     0.851624048     0.118434116     0.180421975
     0.914263961     0.993154290     0.321874748
     0.976903874     0.867874465     0.463327521
     0.455650802     0.910380608     0.038969202
     0.518290715     0.785100783     0.180421975
     0.580930628     0.659820957     0.321874748
     0.643570541     0.534541131     0.463327521
     0.122317469     0.577047275     0.038969202
     0.184957382     0.451767449     0.180421975
     0.247597295     0.326487624     0.321874748
     0.310237207     0.201207798     0.463327521
     0.053190136     0.243713942     0.038969202
     0.115830048     0.118434116     0.180421975
     0.178469961     0.993154290     0.321874748
     0.241109874     0.867874465     0.463327521
     0.719856802     0.910380608     0.038969202
     0.782496715     0.785100783     0.180421975
     0.845136628     0.659820957     0.321874748
     0.907776541     0.534541131     0.463327521
     0.386523469     0.577047275     0.038969202
     0.449163382     0.451767449     0.180421975
     0.511803295     0.326487624     0.321874748
     0.574443207     0.201207798     0.463327521
     0.013505266     0.058877681     0.093863817
     0.076145179     0.933597855     0.235316590
     0.138785092     0.808318030     0.376769363
     0.201425004     0.683038204     0.518222136
     0.680171933     0.725544348     0.093863817
     0.742811845     0.600264522     0.235316590
     0.805451758     0.474984696     0.376769363
     0.868091671     0.349704871     0.518222136
     0.346838599     0.392211014     0.093863817
     0.409478512     0.266931189     0.235316590
     0.472118425     0.141651363     0.376769363
     0.534758338     0.016371537     0.518222136
     0.034579212     0.353159789     0.141452773
     0.097219125     0.227879964     0.282905546
     0.159859037     0.102600138     0.424358320
     0.971939299     0.478439615     0.000000000
     0.638605966     0.145106282     0.000000000
     0.701245878     0.019826456     0.141452773
     0.763885791     0.894546630     0.282905546
     0.826525704     0.769266805     0.424358320
     0.305272632     0.811772948     0.000000000
     0.367912545     0.686493123     0.141452773
     0.430552458     0.561213297     0.282905546
     0.493192371     0.435933471     0.424358320
     0.635509299     0.478439615     0.000000000
     0.698149212     0.353159789     0.141452773
     0.760789125     0.227879964     0.282905546
     0.823429037     0.102600138     0.424358320
     0.302175966     0.145106282     0.000000000
     0.364815878     0.019826456     0.141452773
     0.427455791     0.894546630     0.282905546
     0.490095704     0.769266805     0.424358320
     0.031482545     0.686493123     0.141452773
     0.094122458     0.561213297     0.282905546
     0.156762371     0.435933471     0.424358320
     0.968842632     0.811772948     0.000000000
