POSCAR made from 012-2.xsd file
1.0
        8.2951463879       -4.7892050000       -0.0000000000
        5.5300977567        9.5784102855       -2.0928533957
        1.7633652006        3.0542381198       18.6378691606
   Ni    S
   36   36
Direct
     0.922411709     0.175765632     0.066280391
     0.922411709     0.123913698     0.228893481
     0.922411709     0.072061763     0.391506572
     0.422411709     0.399839657     0.147586936
     0.422411709     0.347987723     0.310200027
     0.422411709     0.296135789     0.472813117
     0.554514709     0.208534959     0.126105259
     0.554514709     0.156683025     0.288718350
     0.554514709     0.104831091     0.451331440
     0.054514709     0.484460919     0.044798714
     0.054514709     0.432608985     0.207411804
     0.054514709     0.380757050     0.370024895
     0.186617709     0.175765632     0.066280391
     0.186617709     0.123913698     0.228893481
     0.186617709     0.072061763     0.391506572
     0.686617709     0.399839657     0.147586936
     0.686617709     0.347987723     0.310200027
     0.686617709     0.296135789     0.472813117
     0.922411709     0.675765632     0.066280391
     0.922411709     0.623913698     0.228893481
     0.922411709     0.572061763     0.391506572
     0.422411709     0.899839657     0.147586936
     0.422411709     0.847987723     0.310200027
     0.422411709     0.796135789     0.472813117
     0.554514709     0.708534959     0.126105259
     0.554514709     0.656683025     0.288718350
     0.554514709     0.604831091     0.451331440
     0.054514709     0.984460919     0.044798714
     0.054514709     0.932608985     0.207411804
     0.054514709     0.880757050     0.370024895
     0.186617709     0.675765632     0.066280391
     0.186617709     0.623913698     0.228893481
     0.186617709     0.572061763     0.391506572
     0.686617709     0.899839657     0.147586936
     0.686617709     0.847987723     0.310200027
     0.686617709     0.796135789     0.472813117
     0.222729709     0.003611599     0.135259129
     0.722729709     0.279537558     0.053952584
     0.722729709     0.227685624     0.216565675
     0.722729709     0.175833690     0.379178765
     0.222729709     0.451759650     0.297872220
     0.222729709     0.399907716     0.460485310
     0.054514709     0.299063752     0.000000000
     0.054514709     0.247211818     0.162613090
     0.054514709     0.195359884     0.325226181
     0.554514709     0.471285844     0.243919636
     0.554514709     0.419433910     0.406532726
     0.554514709     0.023137793     0.081306545
     0.886299709     0.003611599     0.135259129
     0.386299709     0.279537558     0.053952584
     0.386299709     0.227685624     0.216565675
     0.386299709     0.175833690     0.379178765
     0.886299709     0.451759650     0.297872220
     0.886299709     0.399907716     0.460485310
     0.222729709     0.503611599     0.135259129
     0.722729709     0.779537558     0.053952584
     0.722729709     0.727685624     0.216565675
     0.722729709     0.675833690     0.379178765
     0.222729709     0.951759650     0.297872220
     0.222729709     0.899907716     0.460485310
     0.054514709     0.799063752    -0.000000000
     0.054514709     0.747211818     0.162613090
     0.054514709     0.695359884     0.325226181
     0.554514709     0.971285844     0.243919636
     0.554514709     0.919433910     0.406532726
     0.554514709     0.523137793     0.081306545
     0.886299709     0.503611599     0.135259129
     0.386299709     0.779537558     0.053952584
     0.386299709     0.727685624     0.216565675
     0.386299709     0.675833690     0.379178765
     0.886299709     0.951759650     0.297872220
     0.886299709     0.899907716     0.460485310
