POSCAR made from -111-1.xsd file
1.0
        8.2951463879        4.7892050000       -0.0000000000
       -0.0000000000        9.5784100000       -3.1392800000
       -3.7050255135        6.4172924327       19.5801132776
   Ni    S
   36   36
Direct
    -0.069186199     0.224260611     0.317541091
    -0.006546286     1.098980785     0.457784997
     0.805533975     0.474820262     0.037053281
     0.868173888     0.349540436     0.177297186
     0.472200642     0.141486929     0.037053281
     0.534840555     0.016207103     0.177297186
     0.597480468     0.890927277     0.317541091
     0.660120380     0.765647452     0.457784997
     0.138867309     0.808153595     0.037053281
     0.201507221     0.682873770     0.177297186
     0.264147134     0.557593944     0.317541091
     0.326787047     0.432314118     0.457784997
    -0.085736040    -0.006845708     0.280487810
    -0.023096127     0.867874467     0.420731715
     0.788984134     0.243713944     0.000000000
     0.851624047     0.118434118     0.140243905
     0.455650801     0.910380610     0.000000000
     0.518290714     0.785100785     0.140243905
     0.580930627     0.659820959     0.280487810
     0.643570540     0.534541133     0.420731715
     0.122317468     0.577047277     0.000000000
     0.184957381     0.451767451     0.140243905
     0.247597293     0.326487626     0.280487810
     0.310237206     0.201207800     0.420731715
     0.178469960    -0.006845708     0.280487810
     0.241109873     0.867874467     0.420731715
     1.053190134     0.243713944     0.000000000
     1.115830047     0.118434118     0.140243905
     0.719856801     0.910380610     0.000000000
     0.782496714     0.785100785     0.140243905
     0.845136627     0.659820959     0.280487810
     0.907776540     0.534541133     0.420731715
     0.386523468     0.577047277     0.000000000
     0.449163381     0.451767451     0.140243905
     0.511803293     0.326487626     0.280487810
     0.574443206     0.201207800     0.420731715
     0.138785090    -0.191681968     0.334913291
     0.201425003     0.683038206     0.475157196
     1.013505265     0.058877683     0.054425481
     1.076145178    -0.066402143     0.194669386
     0.680171931     0.725544350     0.054425481
     0.742811844     0.600264524     0.194669386
     0.805451757     0.474984698     0.334913291
     0.868091670     0.349704873     0.475157196
     0.346838598     0.392211016     0.054425481
     0.409478511     0.266931191     0.194669386
     0.472118424     0.141651365     0.334913291
     0.534758337     0.016371539     0.475157196
     0.159859036     0.102600140     0.382095548
     0.222498949     0.977320314     0.522339453
     1.034579211     0.353159791     0.101607738
     1.097219123     0.227879966     0.241851643
     0.701245877     0.019826458     0.101607738
     0.763885790     0.894546632     0.241851643
     0.826525703     0.769266807     0.382095548
     0.889165616     0.643986981     0.522339453
     0.367912544     0.686493125     0.101607738
     0.430552457     0.561213299     0.241851643
     0.493192370     0.435933473     0.382095548
     0.555832282     0.310653648     0.522339453
    -0.176570964     0.102600140     0.382095548
    -0.113931051     0.977320314     0.522339453
     0.698149211     0.353159791     0.101607738
     0.760789123     0.227879966     0.241851643
     0.364815877     0.019826458     0.101607738
     0.427455790     0.894546632     0.241851643
     0.490095703     0.769266807     0.382095548
     0.552735616     0.643986981     0.522339453
     0.031482544     0.686493125     0.101607738
     0.094122457     0.561213299     0.241851643
     0.156762370     0.435933473     0.382095548
     0.219402282     0.310653648     0.522339453
