VASP POSCAR made from 012-.xsd file
1.0
        8.2951463879       -4.7892050000       -0.0000000000
        5.5300977567        9.5784102855       -2.0928533957
        1.8542384374        3.2116351828       19.5983528399
   Ni    S
   42   42
Direct
     0.033966832     0.612439509     0.097750737
     0.533966832     0.388365468     0.020428895
     0.533966832     0.336513534     0.175072580
     0.533966832     0.284661600     0.329716265
     0.533966832     0.232809666     0.484359950
     0.033966832     0.560587560     0.252394422
     0.033966832     0.508735625     0.407038107
     0.166069832     0.421134811     0.077321843
     0.666069832     0.197060770     0.000000000
     0.666069832     0.145208836     0.154643685
     0.666069832     0.093356902     0.309287370
     0.666069832     0.041504968     0.463931055
     0.166069832     0.369282861     0.231965528
     0.166069832     0.317430927     0.386609213
     0.298172832     0.612439509     0.097750737
     0.798172832     0.388365468     0.020428895
     0.798172832     0.336513534     0.175072580
     0.798172832     0.284661600     0.329716265
     0.798172832     0.232809666     0.484359950
     0.298172832     0.560587560     0.252394422
     0.298172832     0.508735625     0.407038107
     0.033966832     1.112439509     0.097750737
     0.533966832     0.888365468     0.020428895
     0.533966832     0.836513534     0.175072580
     0.533966832     0.784661600     0.329716265
     0.533966832     0.732809666     0.484359950
     0.033966832     1.060587560     0.252394422
     0.033966832     1.008735625     0.407038107
     0.166069832     0.921134811     0.077321843
     0.666069832     0.697060770    -0.000000000
     0.666069832     0.645208836     0.154643685
     0.666069832     0.593356902     0.309287370
     0.666069832     0.541504968     0.463931055
     0.166069832     0.869282861     0.231965528
     0.166069832     0.817430927     0.386609213
     0.298172832     1.112439509     0.097750737
     0.798172832     0.888365468     0.020428895
     0.798172832     0.836513534     0.175072580
     0.798172832     0.784661600     0.329716265
     0.798172832     0.732809666     0.484359950
     0.298172832     1.060587560     0.252394422
     0.298172832     1.008735625     0.407038107
     0.334284832     0.492137410     0.008705254
     0.334284832     0.440285476     0.163348939
     0.834284832     0.216211435     0.086027096
     0.834284832     0.164359501     0.240670781
     0.834284832     0.112507567     0.395314466
     0.334284832     0.388433527     0.317992624
     0.334284832     0.336581592     0.472636309
     0.166069832     0.735737629     0.034718641
     0.166069832     0.683885695     0.189362326
     0.666069832     0.459811655     0.112040484
     0.666069832     0.407959721     0.266684169
     0.666069832     0.356107786     0.421327854
     0.166069832     0.632033746     0.344006011
     0.166069832     0.580181812     0.498649696
    -0.002145168     0.492137410     0.008705254
    -0.002145168     0.440285476     0.163348939
     0.497854832     0.216211435     0.086027096
     0.497854832     0.164359501     0.240670781
     0.497854832     0.112507567     0.395314466
    -0.002145168     0.388433527     0.317992624
    -0.002145168     0.336581592     0.472636309
     0.334284832     0.992137410     0.008705254
     0.334284832     0.940285476     0.163348939
     0.834284832     0.716211435     0.086027096
     0.834284832     0.664359501     0.240670781
     0.834284832     0.612507567     0.395314466
     0.334284832     0.888433527     0.317992624
     0.334284832     0.836581592     0.472636309
     0.166069832     1.235737629     0.034718641
     0.166069832     1.183885695     0.189362326
     0.666069832     0.959811655     0.112040484
     0.666069832     0.907959721     0.266684169
     0.666069832     0.856107786     0.421327854
     0.166069832     1.132033746     0.344006011
     0.166069832     1.080181812     0.498649696
    -0.002145168     0.992137410     0.008705254
    -0.002145168     0.940285476     0.163348939
     0.497854832     0.716211435     0.086027096
     0.497854832     0.664359501     0.240670781
     0.497854832     0.612507567     0.395314466
    -0.002145168     0.888433527     0.317992624
    -0.002145168     0.836581592     0.472636309
