POSCAR made from 012-4.xsd file
1.0
        8.2951463879       -4.7892050000       -0.0000000000
        5.5300977567        9.5784102855       -2.0928533957
        1.7737201818        3.0721734732       18.7473160200
   Ni    S
   36   36
Direct
     0.922411710     0.175765631     0.093087715
     0.922411710     0.123913697     0.254751470
     0.922411710     0.072061763     0.416415224
     0.422411710     0.451691591     0.012255837
     0.422411710     0.399839657     0.173919592
     0.422411710     0.347987723     0.335583347
     0.554514710     0.208534959     0.152563325
     0.554514710     0.156683025     0.314227080
     0.554514710     0.104831090     0.475890835
     0.054514710     0.484460918     0.071731448
     0.054514710     0.432608984     0.233395202
     0.054514710     0.380757050     0.395058957
     0.186617710     0.175765631     0.093087715
     0.186617710     0.123913697     0.254751470
     0.186617710     0.072061763     0.416415224
     0.686617710     0.451691591     0.012255837
     0.686617710     0.399839657     0.173919592
     0.686617710     0.347987723     0.335583347
     0.922411710     0.675765631     0.093087715
     0.922411710     0.623913697     0.254751470
     0.922411710     0.572061763     0.416415224
     0.422411710     0.951691591     0.012255837
     0.422411710     0.899839657     0.173919592
     0.422411710     0.847987723     0.335583347
     0.554514710     0.708534959     0.152563325
     0.554514710     0.656683025     0.314227080
     0.554514710     0.604831090     0.475890835
     0.054514710     0.984460918     0.071731448
     0.054514710     0.932608984     0.233395202
     0.054514710     0.880757050     0.395058957
     0.186617710     0.675765631     0.093087715
     0.186617710     0.623913697     0.254751470
     0.186617710     0.572061763     0.416415224
     0.686617710     0.951691591     0.012255837
     0.686617710     0.899839657     0.173919592
     0.686617710     0.847987723     0.335583347
     0.222729710     0.055463533     0.000000000
     0.222729710     0.003611598     0.161663755
     0.722729710     0.279537558     0.080831877
     0.722729710     0.227685624     0.242495632
     0.722729710     0.175833690     0.404159387
     0.222729710     0.451759649     0.323327510
     0.054514710     0.299063752     0.027194269
     0.054514710     0.247211818     0.188858024
     0.054514710     0.195359884     0.350521778
     0.554514710     0.471285843     0.269689901
     0.554514710     0.419433909     0.431353656
     0.554514710     0.023137792     0.108026146
     0.886299710     0.055463533     0.000000000
     0.886299710     0.003611598     0.161663755
     0.386299710     0.279537558     0.080831877
     0.386299710     0.227685624     0.242495632
     0.386299710     0.175833690     0.404159387
     0.886299710     0.451759649     0.323327510
     0.222729710     0.555463533     0.000000000
     0.222729710     0.503611598     0.161663755
     0.722729710     0.779537558     0.080831877
     0.722729710     0.727685624     0.242495632
     0.722729710     0.675833690     0.404159387
     0.222729710     0.951759649     0.323327510
     0.054514710     0.799063752     0.027194269
     0.054514710     0.747211818     0.188858024
     0.054514710     0.695359884     0.350521778
     0.554514710     0.971285843     0.269689901
     0.554514710     0.919433909     0.431353656
     0.554514710     0.523137792     0.108026146
     0.886299710     0.555463533    -0.000000000
     0.886299710     0.503611598     0.161663755
     0.386299710     0.779537558     0.080831877
     0.386299710     0.727685624     0.242495632
     0.386299710     0.675833690     0.404159387
     0.886299710     0.951759649     0.323327510
